&CONTROL
 calculation = 'relax'
 tstress = .True.
 tprnfor = .True.
 disk_io = 'none'
 pseudo_dir = '/home/camp/zhonxu/pseudo'
/
&SYSTEM
 ibrav = 0
 nat = 49
 ntyp = 2
 nbnd = 657
 starting_magnetization(1) = 0
 starting_magnetization(2) = 0
 ecutwfc = 40
 ecutrho = 500
 occupations = 'smearing'
 degauss = 0.01
 smearing = 'mp'
 nspin = 1
 Hubbard_U(1) = 0
 Hubbard_U(2) = 0
 Hubbard_alpha(1) = 0
 Hubbard_alpha(2) = 0
/
&ELECTRONS
 mixing_beta = 0.3
/
&IONS
/
&CELL
/
K_POINTS {automatic}
 4 4 1 0 0 0
ATOMIC_SPECIES
 O0 15.9994 o_pbe_v1.01.uspp.F.UPF
 Rh1 102.9055 rh_pbe_v1.uspp.F.UPF
ATOMIC_POSITIONS {crystal}
 O0 0.00000 0.50000 0.33244 0 0 0
 Rh1 0.25000 0.50000 0.36631 0 0 0
 Rh1 0.00000 0.00000 0.36631 0 0 0
 O0 0.25000 0.81000 0.36631 0 0 0
 O0 0.25000 0.19000 0.36631 0 0 0
 O0 0.00000 0.50000 0.40017 0 0 0
 O0 0.00000 0.00000 0.42157 0 0 0
 Rh1 0.25000 0.00000 0.45544 0 0 0
 Rh1 0.00000 0.50000 0.45544 0 0 0
 O0 0.25000 0.69000 0.45544 0 0 0
 O0 0.25000 0.31000 0.45544 0 0 0
 O0 0.00000 0.00000 0.48930 0 0 0
 O0 0.00000 0.50000 0.51016 1 1 1
 Rh1 0.25342 0.50000 0.54445 1 1 1
 Rh1 0.00000 0.00000 0.54444 1 1 1
 O0 0.25048 0.80677 0.54439 1 1 1
 O0 0.25048 0.19323 0.54439 1 1 1
 O0 0.00000 0.50000 0.57794 1 1 1
 O0 0.00000 0.00000 0.59893 1 1 1
 Rh1 0.25004 0.00000 0.63361 1 1 1
 Rh1 0.00000 0.50000 0.63052 1 1 1
 O0 0.24893 0.69139 0.63374 1 1 1
 O0 0.24893 0.30861 0.63374 1 1 1
 O0 0.00000 0.00000 0.66684 1 1 1
 O0 0.50000 0.50000 0.33244 0 0 0
 Rh1 0.75000 0.50000 0.36631 0 0 0
 Rh1 0.50000 0.00000 0.36631 0 0 0
 O0 0.75000 0.81000 0.36631 0 0 0
 O0 0.75000 0.19000 0.36631 0 0 0
 O0 0.50000 0.50000 0.40017 0 0 0
 O0 0.50000 0.00000 0.42157 0 0 0
 Rh1 0.75000 0.00000 0.45544 0 0 0
 Rh1 0.50000 0.50000 0.45544 0 0 0
 O0 0.75000 0.69000 0.45544 0 0 0
 O0 0.75000 0.31000 0.45544 0 0 0
 O0 0.50000 0.00000 0.48930 0 0 0
 O0 0.50000 0.50000 0.50991 1 1 1
 Rh1 0.74658 0.50000 0.54445 1 1 1
 Rh1 0.50000 0.00000 0.54443 1 1 1
 O0 0.74952 0.80677 0.54439 1 1 1
 O0 0.74952 0.19323 0.54439 1 1 1
 O0 0.50000 0.50000 0.57959 1 1 1
 O0 0.50000 0.00000 0.59869 1 1 1
 Rh1 0.74996 0.00000 0.63361 1 1 1
 Rh1 0.50000 0.50000 0.63762 1 1 1
 O0 0.75107 0.69139 0.63374 1 1 1
 O0 0.75107 0.30861 0.63374 1 1 1
 O0 0.50000 0.00000 0.66671 1 1 1
 O0 0.50000 0.50000 0.68635 1 1 1
CELL_PARAMETERS {angstrom}
 6.22 0.0 0.0
 0.0 6.4346717088 0.0
 0.0 0.0 36.0971828125
