&CONTROL
 calculation = 'relax'
 tstress = .True.
 tprnfor = .True.
 disk_io = 'none'
 pseudo_dir = '/home/camp/zhonxu/pseudo'
/
&SYSTEM
 ibrav = 0
 nat = 49
 ntyp = 2
 nbnd = 633
 starting_magnetization(1) = 0
 starting_magnetization(2) = 0
 ecutwfc = 40
 ecutrho = 500
 occupations = 'smearing'
 degauss = 0.01
 smearing = 'mp'
 nspin = 1
 Hubbard_U(1) = 0
 Hubbard_U(2) = 0
 Hubbard_alpha(1) = 0
 Hubbard_alpha(2) = 0
/
&ELECTRONS
 mixing_beta = 0.3
/
&IONS
/
&CELL
/
K_POINTS {automatic}
 4 4 1 0 0 0
ATOMIC_SPECIES
 O0 15.9994 o_pbe_v1.01.uspp.F.UPF
 Mo1 95.94 mo_pbe_v1.uspp.F.UPF
ATOMIC_POSITIONS {crystal}
 O0 0.00000 0.50000 0.31931 0 0 0
 Mo1 0.25000 0.50000 0.36029 0 0 0
 Mo1 0.00000 0.00000 0.36029 0 0 0
 O0 0.25000 0.78000 0.36029 0 0 0
 O0 0.25000 0.22000 0.36029 0 0 0
 O0 0.00000 0.50000 0.40127 0 0 0
 O0 0.00000 0.00000 0.41245 0 0 0
 Mo1 0.25000 0.00000 0.45343 0 0 0
 Mo1 0.00000 0.50000 0.45343 0 0 0
 O0 0.25000 0.72000 0.45343 0 0 0
 O0 0.25000 0.28000 0.45343 0 0 0
 O0 0.00000 0.00000 0.49441 0 0 0
 O0 0.00000 0.50000 0.50492 1 1 1
 Mo1 0.23413 0.50000 0.54612 1 1 1
 Mo1 0.00000 0.00000 0.54788 1 1 1
 O0 0.24493 0.78498 0.54634 1 1 1
 O0 0.24493 0.21502 0.54634 1 1 1
 O0 0.00000 0.50000 0.58790 1 1 1
 O0 0.00000 0.00000 0.60039 1 1 1
 Mo1 0.26805 0.00000 0.64117 1 1 1
 Mo1 0.00000 0.50000 0.63643 1 1 1
 O0 0.25108 0.71079 0.63912 1 1 1
 O0 0.25108 0.28921 0.63912 1 1 1
 O0 0.00000 0.00000 0.67484 1 1 1
 O0 0.50000 0.50000 0.31931 0 0 0
 Mo1 0.75000 0.50000 0.36029 0 0 0
 Mo1 0.50000 0.00000 0.36029 0 0 0
 O0 0.75000 0.78000 0.36029 0 0 0
 O0 0.75000 0.22000 0.36029 0 0 0
 O0 0.50000 0.50000 0.40127 0 0 0
 O0 0.50000 0.00000 0.41245 0 0 0
 Mo1 0.75000 0.00000 0.45343 0 0 0
 Mo1 0.50000 0.50000 0.45343 0 0 0
 O0 0.75000 0.72000 0.45343 0 0 0
 O0 0.75000 0.28000 0.45343 0 0 0
 O0 0.50000 0.00000 0.49441 0 0 0
 O0 0.50000 0.50000 0.50726 1 1 1
 Mo1 0.76587 0.50000 0.54612 1 1 1
 Mo1 0.50000 0.00000 0.54712 1 1 1
 O0 0.75507 0.78498 0.54634 1 1 1
 O0 0.75507 0.21502 0.54634 1 1 1
 O0 0.50000 0.50000 0.58197 1 1 1
 O0 0.50000 0.00000 0.59858 1 1 1
 Mo1 0.73195 0.00000 0.64117 1 1 1
 Mo1 0.50000 0.50000 0.64888 1 1 1
 O0 0.74892 0.71079 0.63912 1 1 1
 O0 0.74892 0.28921 0.63912 1 1 1
 O0 0.50000 0.00000 0.67976 1 1 1
 O0 0.50000 0.50000 0.69356 1 1 1
CELL_PARAMETERS {angstrom}
 5.46 0.0 0.0
 0.0 7.00035713375 0.0
 0.0 0.0 37.5806928395
