&CONTROL
 calculation = 'relax'
 disk_io = 'none'
 pseudo_dir = '/home/camp/zhonxu/pseudo'
/
&SYSTEM
 ibrav = 0
 nat = 31
 ntyp = 3
 nbnd = 357
 starting_magnetization(1) = 0
 starting_magnetization(2) = 0
 starting_magnetization(3) = 0
 ecutwfc = 40
 ecutrho = 500
 occupations = 'smearing'
 degauss = 0.01
 smearing = 'mp'
 nspin = 1
 lda_plus_u = .True.
 Hubbard_U(1) = 0
 Hubbard_U(2) = 4
 Hubbard_U(3) = 0
 Hubbard_alpha(1) = 0
 Hubbard_alpha(2) = 0
 Hubbard_alpha(3) = 0
 U_projection_type = 'atomic'
/
&ELECTRONS
/
&IONS
/
&CELL
/
K_POINTS {automatic}
 4 4 1 0 0 0
ATOMIC_SPECIES
 O0 15.9994 o_pbe_v1.01.uspp.F.UPF
 Ru1 101.07 ru_pbe_v1.uspp.F.UPF
 H2 1.00794 h_pbe_v1.uspp.F.UPF
ATOMIC_POSITIONS {crystal}
 O0 0.00000 0.00000 0.37824 0 0 1
 O0 0.00000 0.50000 0.40386 0 0 1
 Ru1 0.25000 0.50000 0.45488 0 0 1
 Ru1 0.00000 0.00000 0.45226 0 0 1
 O0 0.25000 0.81000 0.45257 0 0 1
 O0 0.25000 0.19000 0.45248 0 0 1
 O0 0.00000 0.50000 0.49828 0 0 1
 O0 0.00000 0.00000 0.52594 0 0 1
 Ru1 0.25000 0.00000 0.57616 0 0 1
 Ru1 0.00000 0.50000 0.56904 0 0 1
 O0 0.25000 0.69000 0.57527 0 0 1
 O0 0.25000 0.31000 0.57509 0 0 1
 O0 0.00000 0.00000 0.61813 0 0 1
 O0 0.50000 0.00000 0.37821 0 0 1
 O0 0.50000 0.50000 0.40447 0 0 1
 Ru1 0.75000 0.50000 0.45487 0 0 1
 Ru1 0.50000 0.00000 0.45207 0 0 1
 O0 0.75000 0.81000 0.45255 0 0 1
 O0 0.75000 0.19000 0.45249 0 0 1
 O0 0.50000 0.50000 0.50285 0 0 1
 O0 0.50000 0.00000 0.52588 0 0 1
 Ru1 0.75000 0.00000 0.57617 0 0 1
 Ru1 0.50000 0.50000 0.58316 0 0 1
 O0 0.75000 0.69000 0.57531 0 0 1
 O0 0.75000 0.31000 0.57505 0 0 1
 O0 0.50000 0.00000 0.61626 0 0 1
 H2 -0.00026 0.62715 0.38264 1 1 1
 H2 0.49958 0.62270 0.38180 1 1 1
 H2 0.14508 0.03233 0.36558 1 1 1
 H2 0.64596 0.02935 0.36560 1 1 1
 O0 0.50005 0.49739 0.64781 1 1 1
CELL_PARAMETERS {angstrom}
 6.24 0.0 0.0
 0.0 6.40638743755 0.0
 0.0 0.0 26.4063874376
