&CONTROL
 calculation = 'relax'
 disk_io = 'none'
 pseudo_dir = '/home/camp/zhonxu/pseudo'
/
&SYSTEM
 ibrav = 0
 nat = 31
 ntyp = 3
 nbnd = 357
 starting_magnetization(1) = 0
 starting_magnetization(2) = 0
 starting_magnetization(3) = 0
 ecutwfc = 40
 ecutrho = 500
 occupations = 'smearing'
 degauss = 0.01
 smearing = 'mp'
 nspin = 1
 lda_plus_u = .True.
 Hubbard_U(1) = 0
 Hubbard_U(2) = 4.5
 Hubbard_U(3) = 0
 Hubbard_alpha(1) = 0
 Hubbard_alpha(2) = 0
 Hubbard_alpha(3) = 0
 U_projection_type = 'atomic'
/
&ELECTRONS
/
&IONS
/
&CELL
/
K_POINTS {automatic}
 4 4 1 0 0 0
ATOMIC_SPECIES
 O0 15.9994 o_pbe_v1.01.uspp.F.UPF
 Re1 186.207 re_pbe_v1.uspp.F.UPF
 H2 1.00794 h_pbe_v1.uspp.F.UPF
ATOMIC_POSITIONS {crystal}
 O0 0.00000 0.00000 0.37017 0 0 1
 O0 0.00000 0.50000 0.38288 0 0 1
 Re1 0.25000 0.50000 0.44261 0 0 1
 Re1 0.00000 0.00000 0.44293 0 0 1
 O0 0.25000 0.78000 0.44158 0 0 1
 O0 0.25000 0.22000 0.44140 0 0 1
 O0 0.00000 0.50000 0.49762 0 0 1
 O0 0.00000 0.00000 0.51445 0 0 1
 Re1 0.25000 0.00000 0.57392 0 0 1
 Re1 0.00000 0.50000 0.56718 0 0 1
 O0 0.25000 0.72000 0.57179 0 0 1
 O0 0.25000 0.28000 0.57182 0 0 1
 O0 0.00000 0.00000 0.62612 0 0 1
 O0 0.50000 0.00000 0.37014 0 0 1
 O0 0.50000 0.50000 0.38315 0 0 1
 Re1 0.75000 0.50000 0.44260 0 0 1
 Re1 0.50000 0.00000 0.44261 0 0 1
 O0 0.75000 0.78000 0.44149 0 0 1
 O0 0.75000 0.22000 0.44147 0 0 1
 O0 0.50000 0.50000 0.49999 0 0 1
 O0 0.50000 0.00000 0.51440 0 0 1
 Re1 0.75000 0.00000 0.57396 0 0 1
 Re1 0.50000 0.50000 0.57686 0 0 1
 O0 0.75000 0.72000 0.57186 0 0 1
 O0 0.75000 0.28000 0.57181 0 0 1
 O0 0.50000 0.00000 0.62549 0 0 1
 H2 -0.00033 0.62528 0.36609 1 1 1
 H2 0.49960 0.62239 0.36502 1 1 1
 H2 0.16872 0.02382 0.35578 1 1 1
 H2 0.67011 0.02188 0.35598 1 1 1
 O0 0.49989 0.49948 0.64068 1 1 1
CELL_PARAMETERS {angstrom}
 5.36 0.0 0.0
 0.0 7.00035713375 0.0
 0.0 0.0 27.0003571337
