&CONTROL
 calculation = 'relax'
 tstress = .True.
 tprnfor = .True.
 disk_io = 'none'
 pseudo_dir = '/home/camp/zhonxu/pseudo'
/
&SYSTEM
 ibrav = 0
 nat = 30
 ntyp = 3
 nbnd = 348
 starting_magnetization(1) = 0
 starting_magnetization(2) = 0
 starting_magnetization(3) = 0
 ecutwfc = 40
 ecutrho = 500
 occupations = 'smearing'
 degauss = 0.01
 smearing = 'mp'
 nspin = 1
 lda_plus_u = .True.
 Hubbard_U(1) = 0
 Hubbard_U(2) = 8
 Hubbard_U(3) = 0
 Hubbard_alpha(1) = 0
 Hubbard_alpha(2) = 0
 Hubbard_alpha(3) = 0
 U_projection_type = 'atomic'
/
&ELECTRONS
 mixing_beta = 0.1
/
&IONS
/
&CELL
/
K_POINTS {automatic}
 4 4 1 0 0 0
ATOMIC_SPECIES
 O0 15.9994 o_pbe_v1.01.uspp.F.UPF
 Ru1 101.07 ru_pbe_v1.uspp.F.UPF
 H2 1.00794 h_pbe_v1.uspp.F.UPF
ATOMIC_POSITIONS {crystal}
 O0 0.00000 0.00000 0.38202 0 0 1
 O0 0.00000 0.50000 0.40213 0 0 1
 Ru1 0.25000 0.50000 0.45162 0 0 1
 Ru1 0.00000 0.00000 0.45538 0 0 1
 O0 0.25000 0.81000 0.45404 0 0 1
 O0 0.25000 0.19000 0.45402 0 0 1
 O0 0.00000 0.50000 0.49881 0 0 1
 O0 0.00000 0.00000 0.52752 0 0 1
 Ru1 0.25000 0.00000 0.58283 0 0 1
 Ru1 0.00000 0.50000 0.56915 0 0 1
 O0 0.25000 0.69000 0.57607 0 0 1
 O0 0.25000 0.31000 0.57648 0 0 1
 O0 0.00000 0.00000 0.62224 0 0 1
 O0 0.50000 0.00000 0.38200 0 0 1
 O0 0.50000 0.50000 0.40210 0 0 1
 Ru1 0.75000 0.50000 0.45161 0 0 1
 Ru1 0.50000 0.00000 0.45533 0 0 1
 O0 0.75000 0.81000 0.45396 0 0 1
 O0 0.75000 0.19000 0.45393 0 0 1
 O0 0.50000 0.50000 0.49880 0 0 1
 O0 0.50000 0.00000 0.52749 0 0 1
 Ru1 0.75000 0.00000 0.57775 0 0 1
 Ru1 0.50000 0.50000 0.56918 0 0 1
 O0 0.75000 0.69000 0.57476 0 0 1
 O0 0.75000 0.31000 0.57516 0 0 1
 O0 0.50000 0.00000 0.62231 0 0 1
 H2 -0.00076 0.60920 0.37607 1 1 1
 H2 0.49904 0.60929 0.37606 1 1 1
 H2 0.14855 0.02188 0.37003 1 1 1
 H2 0.64859 0.02198 0.37003 1 1 1
CELL_PARAMETERS {angstrom}
 6.24 0.0 0.0
 0.0 6.40638743755 0.0
 0.0 0.0 26.4063874376
