&CONTROL
 calculation = 'relax'
 disk_io = 'none'
 pseudo_dir = '/home/camp/zhonxu/pseudo'
/
&SYSTEM
 ibrav = 0
 nat = 31
 ntyp = 3
 nbnd = 345
 starting_magnetization(1) = 0
 starting_magnetization(2) = 0
 starting_magnetization(3) = 0
 ecutwfc = 40
 ecutrho = 500
 occupations = 'smearing'
 degauss = 0.01
 smearing = 'mp'
 nspin = 1
 lda_plus_u = .True.
 Hubbard_U(1) = 0
 Hubbard_U(2) = 7.5
 Hubbard_U(3) = 0
 Hubbard_alpha(1) = 0
 Hubbard_alpha(2) = 0
 Hubbard_alpha(3) = 0
 U_projection_type = 'atomic'
/
&ELECTRONS
/
&IONS
/
&CELL
/
K_POINTS {automatic}
 4 4 1 0 0 0
ATOMIC_SPECIES
 O0 15.9994 o_pbe_v1.01.uspp.F.UPF
 Mo1 95.94 mo_pbe_v1.uspp.F.UPF
 H2 1.00794 h_pbe_v1.uspp.F.UPF
ATOMIC_POSITIONS {crystal}
 O0 0.00000 0.00000 0.37003 0 0 1
 O0 0.00000 0.50000 0.38410 0 0 1
 Mo1 0.25000 0.50000 0.44228 0 0 1
 Mo1 0.00000 0.00000 0.44189 0 0 1
 O0 0.25000 0.78000 0.44266 0 0 1
 O0 0.25000 0.22000 0.44273 0 0 1
 O0 0.00000 0.50000 0.49891 0 0 1
 O0 0.00000 0.00000 0.51613 0 0 1
 Mo1 0.25000 0.00000 0.57413 0 0 1
 Mo1 0.00000 0.50000 0.56649 0 0 1
 O0 0.25000 0.72000 0.57021 0 0 1
 O0 0.25000 0.28000 0.57017 0 0 1
 O0 0.00000 0.00000 0.62469 0 0 1
 O0 0.50000 0.00000 0.37061 0 0 1
 O0 0.50000 0.50000 0.38417 0 0 1
 Mo1 0.75000 0.50000 0.44229 0 0 1
 Mo1 0.50000 0.00000 0.44332 0 0 1
 O0 0.75000 0.78000 0.44283 0 0 1
 O0 0.75000 0.22000 0.44265 0 0 1
 O0 0.50000 0.50000 0.49578 0 0 1
 O0 0.50000 0.00000 0.51564 0 0 1
 Mo1 0.75000 0.00000 0.57413 0 0 1
 Mo1 0.50000 0.50000 0.58071 0 0 1
 O0 0.75000 0.72000 0.57021 0 0 1
 O0 0.75000 0.28000 0.57019 0 0 1
 O0 0.50000 0.00000 0.62449 0 0 1
 H2 -0.00066 0.59954 0.35848 1 1 1
 H2 0.49964 0.62118 0.36555 1 1 1
 H2 0.16740 0.01643 0.35561 1 1 1
 H2 0.66377 0.02020 0.35531 1 1 1
 O0 0.50002 0.49976 0.64319 1 1 1
CELL_PARAMETERS {angstrom}
 5.46 0.0 0.0
 0.0 7.00035713375 0.0
 0.0 0.0 27.0003571337
