&CONTROL
 calculation = 'relax'
 tstress = .True.
 tprnfor = .True.
 disk_io = 'none'
 pseudo_dir = '/home/camp/zhonxu/pseudo'
/
&SYSTEM
 ibrav = 0
 nat = 49
 ntyp = 2
 nbnd = 681
 starting_magnetization(1) = 0
 starting_magnetization(2) = 0
 ecutwfc = 40
 ecutrho = 500
 occupations = 'smearing'
 degauss = 0.01
 smearing = 'mp'
 nspin = 1
 Hubbard_U(1) = 0
 Hubbard_U(2) = 0
 Hubbard_alpha(1) = 0
 Hubbard_alpha(2) = 0
/
&ELECTRONS
 mixing_beta = 0.3
/
&IONS
/
&CELL
/
K_POINTS {automatic}
 4 4 1 0 0 0
ATOMIC_SPECIES
 O0 15.9994 o_pbe_v1.01.uspp.F.UPF
 Pt1 195.08 pt_pbe_v1.uspp.F.UPF
ATOMIC_POSITIONS {crystal}
 O0 0.00000 0.50000 0.33146 0 0 0
 Pt1 0.25000 0.50000 0.36553 0 0 0
 Pt1 0.00000 0.00000 0.36553 0 0 0
 O0 0.25000 0.81000 0.36553 0 0 0
 O0 0.25000 0.19000 0.36553 0 0 0
 O0 0.00000 0.50000 0.39959 0 0 0
 O0 0.00000 0.00000 0.42111 0 0 0
 Pt1 0.25000 0.00000 0.45518 0 0 0
 Pt1 0.00000 0.50000 0.45518 0 0 0
 O0 0.25000 0.69000 0.45518 0 0 0
 O0 0.25000 0.31000 0.45518 0 0 0
 O0 0.00000 0.00000 0.48924 0 0 0
 O0 0.00000 0.50000 0.51053 1 1 1
 Pt1 0.25094 0.50000 0.54418 1 1 1
 Pt1 0.00000 0.00000 0.54455 1 1 1
 O0 0.25022 0.80926 0.54440 1 1 1
 O0 0.25022 0.19074 0.54440 1 1 1
 O0 0.00000 0.50000 0.57798 1 1 1
 O0 0.00000 0.00000 0.59985 1 1 1
 Pt1 0.24998 0.00000 0.63412 1 1 1
 Pt1 0.00000 0.50000 0.63429 1 1 1
 O0 0.24908 0.69006 0.63566 1 1 1
 O0 0.24908 0.30994 0.63566 1 1 1
 O0 0.00000 0.00000 0.66738 1 1 1
 O0 0.50000 0.50000 0.33146 0 0 0
 Pt1 0.75000 0.50000 0.36553 0 0 0
 Pt1 0.50000 0.00000 0.36553 0 0 0
 O0 0.75000 0.81000 0.36553 0 0 0
 O0 0.75000 0.19000 0.36553 0 0 0
 O0 0.50000 0.50000 0.39959 0 0 0
 O0 0.50000 0.00000 0.42111 0 0 0
 Pt1 0.75000 0.00000 0.45518 0 0 0
 Pt1 0.50000 0.50000 0.45518 0 0 0
 O0 0.75000 0.69000 0.45518 0 0 0
 O0 0.75000 0.31000 0.45518 0 0 0
 O0 0.50000 0.00000 0.48924 0 0 0
 O0 0.50000 0.50000 0.50985 1 1 1
 Pt1 0.74906 0.50000 0.54418 1 1 1
 Pt1 0.50000 0.00000 0.54454 1 1 1
 O0 0.74978 0.80926 0.54440 1 1 1
 O0 0.74978 0.19074 0.54440 1 1 1
 O0 0.50000 0.50000 0.57889 1 1 1
 O0 0.50000 0.00000 0.59985 1 1 1
 Pt1 0.75002 0.00000 0.63412 1 1 1
 Pt1 0.50000 0.50000 0.63700 1 1 1
 O0 0.75092 0.69006 0.63566 1 1 1
 O0 0.75092 0.30994 0.63566 1 1 1
 O0 0.50000 0.00000 0.66738 1 1 1
 O0 0.50000 0.50000 0.68725 1 1 1
CELL_PARAMETERS {angstrom}
 6.46 0.0 0.0
 0.0 6.49124025129 0.0
 0.0 0.0 36.2035316724
