&CONTROL
 calculation = 'relax'
 disk_io = 'none'
 pseudo_dir = '/home/camp/zhonxu/pseudo'
/
&SYSTEM
 ibrav = 0
 nat = 31
 ntyp = 3
 nbnd = 357
 starting_magnetization(1) = 0
 starting_magnetization(2) = 0
 starting_magnetization(3) = 0
 ecutwfc = 40
 ecutrho = 500
 occupations = 'smearing'
 degauss = 0.01
 smearing = 'mp'
 nspin = 2
 Hubbard_U(1) = 0
 Hubbard_U(2) = 0
 Hubbard_U(3) = 0
 Hubbard_alpha(1) = 0
 Hubbard_alpha(2) = 0
 Hubbard_alpha(3) = 0
/
&ELECTRONS
 mixing_beta = 0.3
/
&IONS
/
&CELL
/
K_POINTS {automatic}
 4 4 1 0 0 0
ATOMIC_SPECIES
 O0 15.9994 o_pbe_v1.01.uspp.F.UPF
 Ir1 192.22 ir_pbe_v1.uspp.F.UPF
 H2 1.00794 h_pbe_v1.uspp.F.UPF
ATOMIC_POSITIONS {crystal}
 O0 0.00000 0.00000 0.37871 0 0 1
 O0 0.00000 0.50000 0.40197 0 0 1
 Ir1 0.25000 0.50000 0.45213 0 0 1
 Ir1 0.00000 0.00000 0.45357 0 0 1
 O0 0.25000 0.81000 0.45304 0 0 1
 O0 0.25000 0.19000 0.45268 0 0 1
 O0 0.00000 0.50000 0.49841 0 0 1
 O0 0.00000 0.00000 0.52950 0 0 1
 Ir1 0.25000 0.00000 0.57654 0 0 1
 Ir1 0.00000 0.50000 0.57225 0 0 1
 O0 0.25000 0.69000 0.57455 0 0 1
 O0 0.25000 0.31000 0.57457 0 0 1
 O0 0.00000 0.00000 0.62112 0 0 1
 O0 0.50000 0.00000 0.37863 0 0 1
 O0 0.50000 0.50000 0.40107 0 0 1
 Ir1 0.75000 0.50000 0.45212 0 0 1
 Ir1 0.50000 0.00000 0.45352 0 0 1
 O0 0.75000 0.81000 0.45305 0 0 1
 O0 0.75000 0.19000 0.45269 0 0 1
 O0 0.50000 0.50000 0.49898 0 0 1
 O0 0.50000 0.00000 0.52943 0 0 1
 Ir1 0.75000 0.00000 0.57655 0 0 1
 Ir1 0.50000 0.50000 0.57736 0 0 1
 O0 0.75000 0.69000 0.57456 0 0 1
 O0 0.75000 0.31000 0.57457 0 0 1
 O0 0.50000 0.00000 0.62083 0 0 1
 H2 -0.00006 0.63496 0.38363 1 1 1
 H2 0.49994 0.63673 0.38351 1 1 1
 H2 0.14353 0.03356 0.36708 1 1 1
 H2 0.64353 0.03375 0.36706 1 1 1
 O0 0.49999 0.49939 0.64438 1 1 1
CELL_PARAMETERS {angstrom}
 6.36 0.0 0.0
 0.0 6.42052957317 0.0
 0.0 0.0 26.4205295732
