&CONTROL
 calculation = 'relax'
 tstress = .True.
 tprnfor = .True.
 disk_io = 'none'
 pseudo_dir = '/home/camp/zhonxu/pseudo'
/
&SYSTEM
 ibrav = 0
 nat = 49
 ntyp = 2
 nbnd = 633
 tot_magnetization = 46
 starting_magnetization(1) = 0
 starting_magnetization(2) = 0.6
 ecutwfc = 40
 ecutrho = 500
 occupations = 'smearing'
 degauss = 0.01
 smearing = 'mp'
 nspin = 2
 Hubbard_U(1) = 0
 Hubbard_U(2) = 0
 Hubbard_alpha(1) = 0
 Hubbard_alpha(2) = 0
/
&ELECTRONS
 mixing_beta = 0.3
/
&IONS
/
&CELL
/
K_POINTS {automatic}
 4 4 1 0 0 0
ATOMIC_SPECIES
 O0 15.9994 o_pbe_v1.01.uspp.F.UPF
 Mn1 54.938 mn_pbe_v1.uspp.F.UPF
ATOMIC_POSITIONS {crystal}
 O0 0.00000 0.50000 0.33599 0 0 0
 Mn1 0.25000 0.50000 0.37052 0 0 0
 Mn1 0.00000 0.00000 0.37052 0 0 0
 O0 0.25000 0.80000 0.37052 0 0 0
 O0 0.25000 0.20000 0.37052 0 0 0
 O0 0.00000 0.50000 0.40505 0 0 0
 O0 0.00000 0.00000 0.42231 0 0 0
 Mn1 0.25000 0.00000 0.45684 0 0 0
 Mn1 0.00000 0.50000 0.45684 0 0 0
 O0 0.25000 0.70000 0.45684 0 0 0
 O0 0.25000 0.30000 0.45684 0 0 0
 O0 0.00000 0.00000 0.49137 0 0 0
 O0 0.00000 0.50000 0.51089 1 1 1
 Mn1 0.25678 0.50000 0.54532 1 1 1
 Mn1 0.00000 0.00000 0.54673 1 1 1
 O0 0.25033 0.80440 0.54545 1 1 1
 O0 0.25033 0.19560 0.54545 1 1 1
 O0 0.00000 0.50000 0.58020 1 1 1
 O0 0.00000 0.00000 0.59984 1 1 1
 Mn1 0.25103 0.00000 0.63666 1 1 1
 Mn1 0.00000 0.50000 0.63030 1 1 1
 O0 0.25145 0.68944 0.63864 1 1 1
 O0 0.25145 0.31056 0.63864 1 1 1
 O0 0.00000 0.00000 0.66839 1 1 1
 O0 0.50000 0.50000 0.33599 0 0 0
 Mn1 0.75000 0.50000 0.37052 0 0 0
 Mn1 0.50000 0.00000 0.37052 0 0 0
 O0 0.75000 0.80000 0.37052 0 0 0
 O0 0.75000 0.20000 0.37052 0 0 0
 O0 0.50000 0.50000 0.40505 0 0 0
 O0 0.50000 0.00000 0.42231 0 0 0
 Mn1 0.75000 0.00000 0.45684 0 0 0
 Mn1 0.50000 0.50000 0.45684 0 0 0
 O0 0.75000 0.70000 0.45684 0 0 0
 O0 0.75000 0.30000 0.45684 0 0 0
 O0 0.50000 0.00000 0.49137 0 0 0
 O0 0.50000 0.50000 0.51044 1 1 1
 Mn1 0.74322 0.50000 0.54532 1 1 1
 Mn1 0.50000 0.00000 0.54703 1 1 1
 O0 0.74967 0.80440 0.54545 1 1 1
 O0 0.74967 0.19560 0.54545 1 1 1
 O0 0.50000 0.50000 0.57896 1 1 1
 O0 0.50000 0.00000 0.59994 1 1 1
 Mn1 0.74897 0.00000 0.63666 1 1 1
 Mn1 0.50000 0.50000 0.64934 1 1 1
 O0 0.74855 0.68944 0.63864 1 1 1
 O0 0.74855 0.31056 0.63864 1 1 1
 O0 0.50000 0.00000 0.66864 1 1 1
 O0 0.50000 0.50000 0.69364 1 1 1
CELL_PARAMETERS {angstrom}
 5.68 0.0 0.0
 0.0 6.16597113195 0.0
 0.0 0.0 35.7153451507
