&CONTROL
 calculation = 'relax'
 disk_io = 'none'
 pseudo_dir = '/home/camp/zhonxu/pseudo'
/
&SYSTEM
 ibrav = 0
 nat = 30
 ntyp = 3
 nbnd = 336
 starting_magnetization(1) = 0
 starting_magnetization(2) = 0.6
 starting_magnetization(3) = 0
 ecutwfc = 40
 ecutrho = 500
 occupations = 'smearing'
 degauss = 0.01
 smearing = 'mp'
 nspin = 2
 Hubbard_U(1) = 0
 Hubbard_U(2) = 0
 Hubbard_U(3) = 0
 Hubbard_alpha(1) = 0
 Hubbard_alpha(2) = 0
 Hubbard_alpha(3) = 0
/
&ELECTRONS
 mixing_beta = 0.3
/
&IONS
/
&CELL
/
K_POINTS {automatic}
 4 4 1 0 0 0
ATOMIC_SPECIES
 O0 15.9994 o_pbe_v1.01.uspp.F.UPF
 Mn1 54.938 mn_pbe_v1.uspp.F.UPF
 H2 1.00794 h_pbe_v1.uspp.F.UPF
ATOMIC_POSITIONS {crystal}
 O0 0.00000 0.00000 0.37860 0 0 1
 O0 0.00000 0.50000 0.39831 0 0 1
 Mn1 0.25000 0.50000 0.44924 0 0 1
 Mn1 0.00000 0.00000 0.44977 0 0 1
 O0 0.25000 0.80000 0.44925 0 0 1
 O0 0.25000 0.20000 0.45087 0 0 1
 O0 0.00000 0.50000 0.49670 0 0 1
 O0 0.00000 0.00000 0.52461 0 0 1
 Mn1 0.25000 0.00000 0.57421 0 0 1
 Mn1 0.00000 0.50000 0.56851 0 0 1
 O0 0.25000 0.70000 0.57947 0 0 1
 O0 0.25000 0.30000 0.57952 0 0 1
 O0 0.00000 0.00000 0.61786 0 0 1
 O0 0.50000 0.00000 0.37860 0 0 1
 O0 0.50000 0.50000 0.39831 0 0 1
 Mn1 0.75000 0.50000 0.44924 0 0 1
 Mn1 0.50000 0.00000 0.44977 0 0 1
 O0 0.75000 0.80000 0.44925 0 0 1
 O0 0.75000 0.20000 0.45087 0 0 1
 O0 0.50000 0.50000 0.49670 0 0 1
 O0 0.50000 0.00000 0.52461 0 0 1
 Mn1 0.75000 0.00000 0.57421 0 0 1
 Mn1 0.50000 0.50000 0.56851 0 0 1
 O0 0.75000 0.70000 0.57947 0 0 1
 O0 0.75000 0.30000 0.57952 0 0 1
 O0 0.50000 0.00000 0.61786 0 0 1
 H2 -0.00009 0.64649 0.38186 1 1 1
 H2 0.49991 0.64649 0.38186 1 1 1
 H2 0.16169 0.03581 0.36683 1 1 1
 H2 0.66169 0.03581 0.36683 1 1 1
CELL_PARAMETERS {angstrom}
 5.68 0.0 0.0
 0.0 6.16597113195 0.0
 0.0 0.0 26.1659711319
