&CONTROL
 calculation = 'relax'
 tstress = .True.
 tprnfor = .True.
 disk_io = 'none'
 pseudo_dir = '/home/camp/zhonxu/pseudo'
/
&SYSTEM
 ibrav = 0
 nat = 31
 ntyp = 3
 nbnd = 345
 starting_magnetization(1) = 0
 starting_magnetization(2) = 0
 starting_magnetization(3) = 0
 ecutwfc = 40
 ecutrho = 500
 occupations = 'smearing'
 degauss = 0.01
 smearing = 'mp'
 nspin = 1
 lda_plus_u = .True.
 Hubbard_U(1) = 0
 Hubbard_U(2) = 6.5
 Hubbard_U(3) = 0
 Hubbard_alpha(1) = 0
 Hubbard_alpha(2) = 0
 Hubbard_alpha(3) = 0
 U_projection_type = 'atomic'
/
&ELECTRONS
 mixing_beta = 0.3
/
&IONS
/
&CELL
/
K_POINTS {automatic}
 4 4 1 0 0 0
ATOMIC_SPECIES
 O0 15.9994 o_pbe_v1.01.uspp.F.UPF
 Mo1 95.94 mo_pbe_v1.uspp.F.UPF
 H2 1.00794 h_pbe_v1.uspp.F.UPF
ATOMIC_POSITIONS {crystal}
 O0 0.00000 0.00000 0.36868 0 0 1
 O0 0.00000 0.50000 0.38466 0 0 1
 Mo1 0.25000 0.50000 0.44309 0 0 1
 Mo1 0.00000 0.00000 0.44030 0 0 1
 O0 0.25000 0.78000 0.44225 0 0 1
 O0 0.25000 0.22000 0.44206 0 0 1
 O0 0.00000 0.50000 0.49928 0 0 1
 O0 0.00000 0.00000 0.51488 0 0 1
 Mo1 0.25000 0.00000 0.57873 0 0 1
 Mo1 0.00000 0.50000 0.56917 0 0 1
 O0 0.25000 0.72000 0.57226 0 0 1
 O0 0.25000 0.28000 0.57230 0 0 1
 O0 0.00000 0.00000 0.62394 0 0 1
 O0 0.50000 0.00000 0.36993 0 0 1
 O0 0.50000 0.50000 0.38472 0 0 1
 Mo1 0.75000 0.50000 0.44318 0 0 1
 Mo1 0.50000 0.00000 0.44172 0 0 1
 O0 0.75000 0.78000 0.44205 0 0 1
 O0 0.75000 0.22000 0.44223 0 0 1
 O0 0.50000 0.50000 0.49748 0 0 1
 O0 0.50000 0.00000 0.51435 0 0 1
 Mo1 0.75000 0.00000 0.56812 0 0 1
 Mo1 0.50000 0.50000 0.58114 0 0 1
 O0 0.75000 0.72000 0.57109 0 0 1
 O0 0.75000 0.28000 0.57110 0 0 1
 O0 0.50000 0.00000 0.62369 0 0 1
 H2 0.00209 0.60562 0.36074 1 1 1
 H2 0.49796 0.61943 0.36546 1 1 1
 H2 0.16550 0.02055 0.35388 1 1 1
 H2 0.66190 0.02059 0.35380 1 1 1
 O0 0.50247 0.49981 0.64331 1 1 1
CELL_PARAMETERS {angstrom}
 5.46 0.0 0.0
 0.0 7.00035713375 0.0
 0.0 0.0 27.0003571337
