&CONTROL
 calculation = 'relax'
 disk_io = 'none'
 pseudo_dir = '/home/camp/zhonxu/pseudo'
/
&SYSTEM
 ibrav = 0
 nat = 31
 ntyp = 3
 nbnd = 369
 starting_magnetization(1) = 0
 starting_magnetization(2) = 0
 starting_magnetization(3) = 0
 ecutwfc = 40
 ecutrho = 500
 occupations = 'smearing'
 degauss = 0.01
 smearing = 'mp'
 nspin = 1
 lda_plus_u = .True.
 Hubbard_U(1) = 0
 Hubbard_U(2) = 5.5
 Hubbard_U(3) = 0
 Hubbard_alpha(1) = 0
 Hubbard_alpha(2) = 0
 Hubbard_alpha(3) = 0
 U_projection_type = 'atomic'
/
&ELECTRONS
/
&IONS
/
&CELL
/
K_POINTS {automatic}
 4 4 1 0 0 0
ATOMIC_SPECIES
 O0 15.9994 o_pbe_v1.01.uspp.F.UPF
 Pt1 195.08 pt_pbe_v1.uspp.F.UPF
 H2 1.00794 h_pbe_v1.uspp.F.UPF
ATOMIC_POSITIONS {crystal}
 O0 0.00000 0.00000 0.37771 0 0 1
 O0 0.00000 0.50000 0.40163 0 0 1
 Pt1 0.25000 0.50000 0.45124 0 0 1
 Pt1 0.00000 0.00000 0.45271 0 0 1
 O0 0.25000 0.81000 0.44339 0 0 1
 O0 0.25000 0.19000 0.46008 0 0 1
 O0 0.00000 0.50000 0.49681 0 0 1
 O0 0.00000 0.00000 0.52970 0 0 1
 Pt1 0.25000 0.00000 0.57607 0 0 1
 Pt1 0.00000 0.50000 0.57535 0 0 1
 O0 0.25000 0.69000 0.56612 0 0 1
 O0 0.25000 0.31000 0.58577 0 0 1
 O0 0.00000 0.00000 0.62138 0 0 1
 O0 0.50000 0.00000 0.37779 0 0 1
 O0 0.50000 0.50000 0.40088 0 0 1
 Pt1 0.75000 0.50000 0.45125 0 0 1
 Pt1 0.50000 0.00000 0.45272 0 0 1
 O0 0.75000 0.81000 0.44343 0 0 1
 O0 0.75000 0.19000 0.46007 0 0 1
 O0 0.50000 0.50000 0.49822 0 0 1
 O0 0.50000 0.00000 0.52956 0 0 1
 Pt1 0.75000 0.00000 0.57608 0 0 1
 Pt1 0.50000 0.50000 0.57787 0 0 1
 O0 0.75000 0.69000 0.56611 0 0 1
 O0 0.75000 0.31000 0.58578 0 0 1
 O0 0.50000 0.00000 0.62135 0 0 1
 H2 0.00011 0.63950 0.38565 1 1 1
 H2 0.50018 0.64002 0.38533 1 1 1
 H2 0.14266 0.03632 0.36758 1 1 1
 H2 0.64192 0.03869 0.36758 1 1 1
 O0 0.50009 0.57260 0.64446 1 1 1
CELL_PARAMETERS {angstrom}
 6.46 0.0 0.0
 0.0 6.49124025129 0.0
 0.0 0.0 26.4912402513
