&CONTROL
 calculation = 'vc-relax'
 disk_io = 'none'
 pseudo_dir = '/home/camp/zhonxu/pseudo'
/
&SYSTEM
 ibrav = 0
 nat = 6
 ntyp = 2
 nbnd = 69
 starting_magnetization(1) = 0.6
 starting_magnetization(2) = 0
 ecutwfc = 40
 ecutrho = 500
 occupations = 'smearing'
 degauss = 0.01
 smearing = 'mp'
 nspin = 2
 Hubbard_U(1) = 0
 Hubbard_U(2) = 0
 Hubbard_alpha(1) = 0
 Hubbard_alpha(2) = 0
/
&ELECTRONS
 conv_thr = 7e-06
 mixing_beta = 0.3
/
&IONS
/
&CELL
 cell_dofree = 'shape'
/
K_POINTS {automatic}
 5 5 5 0 0 0
ATOMIC_SPECIES
 Ti0 47.88 ti_pbe_v1.uspp.F.UPF
 O1 15.9994 o_pbe_v1.01.uspp.F.UPF
ATOMIC_POSITIONS {crystal}
 Ti0 0.00000 0.00000 0.00000 0 0 0
 Ti0 0.48721 0.48721 0.50269 0 0 0
 O1 0.27539 0.27539 -0.00387 1 1 0
 O1 -0.34464 -0.34464 0.00484 1 1 0
 O1 0.78384 0.16806 0.50284 1 1 0
 O1 0.16806 0.78384 0.50284 1 1 0
CELL_PARAMETERS {angstrom}
 4.83291505202 0.0664326208908 0.0212556702672
 0.0664326208908 4.83291505202 0.0212556702672
 0.0128392058231 0.0128392058231 3.02724188889
