&CONTROL
 calculation = 'relax'
 disk_io = 'none'
 pseudo_dir = '/home/camp/zhonxu/pseudo'
/
&SYSTEM
 ibrav = 0
 nat = 31
 ntyp = 3
 nbnd = 369
 starting_magnetization(1) = 0
 starting_magnetization(2) = 0
 starting_magnetization(3) = 0
 ecutwfc = 40
 ecutrho = 500
 occupations = 'smearing'
 degauss = 0.01
 smearing = 'mp'
 nspin = 1
 Hubbard_U(1) = 0
 Hubbard_U(2) = 0
 Hubbard_U(3) = 0
 Hubbard_alpha(1) = 0
 Hubbard_alpha(2) = 0
 Hubbard_alpha(3) = 0
/
&ELECTRONS
 mixing_beta = 0.3
/
&IONS
/
&CELL
/
K_POINTS {automatic}
 4 4 1 0 0 0
ATOMIC_SPECIES
 O0 15.9994 o_pbe_v1.01.uspp.F.UPF
 Pt1 195.08 pt_pbe_v1.uspp.F.UPF
 H2 1.00794 h_pbe_v1.uspp.F.UPF
ATOMIC_POSITIONS {crystal}
 O0 0.00000 0.00000 0.37720 0 0 1
 O0 0.00000 0.50000 0.40124 0 0 1
 Pt1 0.25000 0.50000 0.45098 0 0 1
 Pt1 0.00000 0.00000 0.45220 0 0 1
 O0 0.25000 0.81000 0.44348 0 0 1
 O0 0.25000 0.19000 0.45892 0 0 1
 O0 0.00000 0.50000 0.49643 0 0 1
 O0 0.00000 0.00000 0.52911 0 0 1
 Pt1 0.25000 0.00000 0.57560 0 0 1
 Pt1 0.00000 0.50000 0.57606 0 0 1
 O0 0.25000 0.69000 0.57639 0 0 1
 O0 0.25000 0.31000 0.57795 0 0 1
 O0 0.00000 0.00000 0.62105 0 0 1
 O0 0.50000 0.00000 0.37723 0 0 1
 O0 0.50000 0.50000 0.40108 0 0 1
 Pt1 0.75000 0.50000 0.45098 0 0 1
 Pt1 0.50000 0.00000 0.45215 0 0 1
 O0 0.75000 0.81000 0.44349 0 0 1
 O0 0.75000 0.19000 0.45890 0 0 1
 O0 0.50000 0.50000 0.49814 0 0 1
 O0 0.50000 0.00000 0.52903 0 0 1
 Pt1 0.75000 0.00000 0.57560 0 0 1
 Pt1 0.50000 0.50000 0.57940 0 0 1
 O0 0.75000 0.69000 0.57641 0 0 1
 O0 0.75000 0.31000 0.57796 0 0 1
 O0 0.50000 0.00000 0.62094 0 0 1
 H2 -0.00002 0.63891 0.38500 1 1 1
 H2 0.49994 0.63761 0.38450 1 1 1
 H2 0.14362 0.03269 0.36709 1 1 1
 H2 0.64343 0.03303 0.36707 1 1 1
 O0 0.49999 0.50256 0.64807 1 1 1
CELL_PARAMETERS {angstrom}
 6.46 0.0 0.0
 0.0 6.49124025129 0.0
 0.0 0.0 26.4912402513
