&CONTROL
 calculation = 'relax'
 disk_io = 'none'
 pseudo_dir = '/home/camp/zhonxu/pseudo'
/
&SYSTEM
 ibrav = 0
 nat = 30
 ntyp = 3
 nbnd = 348
 starting_magnetization(1) = 0
 starting_magnetization(2) = 0
 starting_magnetization(3) = 0
 ecutwfc = 40
 ecutrho = 500
 occupations = 'smearing'
 degauss = 0.01
 smearing = 'mp'
 nspin = 1
 lda_plus_u = .True.
 Hubbard_U(1) = 0
 Hubbard_U(2) = 6.5
 Hubbard_U(3) = 0
 Hubbard_alpha(1) = 0
 Hubbard_alpha(2) = 0
 Hubbard_alpha(3) = 0
 U_projection_type = 'atomic'
/
&ELECTRONS
/
&IONS
/
&CELL
/
K_POINTS {automatic}
 4 4 1 0 0 0
ATOMIC_SPECIES
 O0 15.9994 o_pbe_v1.01.uspp.F.UPF
 Rh1 102.9055 rh_pbe_v1.uspp.F.UPF
 H2 1.00794 h_pbe_v1.uspp.F.UPF
ATOMIC_POSITIONS {crystal}
 O0 0.00000 0.00000 0.37865 0 0 1
 O0 0.00000 0.50000 0.40049 0 0 1
 Rh1 0.25000 0.50000 0.45199 0 0 1
 Rh1 0.00000 0.00000 0.45320 0 0 1
 O0 0.25000 0.81000 0.45279 0 0 1
 O0 0.25000 0.19000 0.45258 0 0 1
 O0 0.00000 0.50000 0.49848 0 0 1
 O0 0.00000 0.00000 0.52880 0 0 1
 Rh1 0.25000 0.00000 0.57645 0 0 1
 Rh1 0.00000 0.50000 0.57121 0 0 1
 O0 0.25000 0.69000 0.57789 0 0 1
 O0 0.25000 0.31000 0.57791 0 0 1
 O0 0.00000 0.00000 0.62168 0 0 1
 O0 0.50000 0.00000 0.37865 0 0 1
 O0 0.50000 0.50000 0.40049 0 0 1
 Rh1 0.75000 0.50000 0.45199 0 0 1
 Rh1 0.50000 0.00000 0.45320 0 0 1
 O0 0.75000 0.81000 0.45279 0 0 1
 O0 0.75000 0.19000 0.45258 0 0 1
 O0 0.50000 0.50000 0.49848 0 0 1
 O0 0.50000 0.00000 0.52880 0 0 1
 Rh1 0.75000 0.00000 0.57645 0 0 1
 Rh1 0.50000 0.50000 0.57121 0 0 1
 O0 0.75000 0.69000 0.57789 0 0 1
 O0 0.75000 0.31000 0.57791 0 0 1
 O0 0.50000 0.00000 0.62168 0 0 1
 H2 -0.00007 0.63897 0.38398 1 1 1
 H2 0.49993 0.63896 0.38398 1 1 1
 H2 0.14844 0.03253 0.36783 1 1 1
 H2 0.64844 0.03253 0.36783 1 1 1
CELL_PARAMETERS {angstrom}
 6.22 0.0 0.0
 0.0 6.4346717088 0.0
 0.0 0.0 26.4346717088
