&CONTROL
 calculation = 'relax'
 disk_io = 'none'
 pseudo_dir = '/home/camp/zhonxu/pseudo'
/
&SYSTEM
 ibrav = 0
 nat = 49
 ntyp = 2
 nbnd = 657
 starting_magnetization(1) = 0
 starting_magnetization(2) = 0
 ecutwfc = 40
 ecutrho = 500
 occupations = 'smearing'
 degauss = 0.01
 smearing = 'mp'
 nspin = 1
 Hubbard_U(1) = 0
 Hubbard_U(2) = 0
 Hubbard_alpha(1) = 0
 Hubbard_alpha(2) = 0
/
&ELECTRONS
 mixing_beta = 0.3
/
&IONS
/
&CELL
/
K_POINTS {automatic}
 4 4 1 0 0 0
ATOMIC_SPECIES
 O0 15.9994 o_pbe_v1.01.uspp.F.UPF
 Rh1 102.9055 rh_pbe_v1.uspp.F.UPF
ATOMIC_POSITIONS {crystal}
 O0 0.00000 0.50000 0.33244 0 0 0
 Rh1 0.25000 0.50000 0.36631 0 0 0
 Rh1 0.00000 0.00000 0.36631 0 0 0
 O0 0.25000 0.81000 0.36631 0 0 0
 O0 0.25000 0.19000 0.36631 0 0 0
 O0 0.00000 0.50000 0.40017 0 0 0
 O0 0.00000 0.00000 0.42157 0 0 0
 Rh1 0.25000 0.00000 0.45544 0 0 0
 Rh1 0.00000 0.50000 0.45544 0 0 0
 O0 0.25000 0.69000 0.45544 0 0 0
 O0 0.25000 0.31000 0.45544 0 0 0
 O0 0.00000 0.00000 0.48930 0 0 0
 O0 0.00000 0.50000 0.50959 0 0 0
 Rh1 0.25000 0.50000 0.54386 0 0 0
 Rh1 0.00000 0.00000 0.54459 0 0 0
 O0 0.25000 0.80667 0.54445 0 0 0
 O0 0.25000 0.19333 0.54445 0 0 0
 O0 0.00000 0.50000 0.57814 0 0 0
 O0 0.00000 0.00000 0.59926 0 0 0
 Rh1 0.25000 0.00000 0.63431 0 0 0
 Rh1 0.00000 0.50000 0.63123 0 0 0
 O0 0.25000 0.69004 0.63605 0 0 0
 O0 0.25000 0.30996 0.63605 0 0 0
 O0 0.00000 0.00000 0.66753 0 0 0
 O0 0.50000 0.50000 0.33244 0 0 0
 Rh1 0.75000 0.50000 0.36631 0 0 0
 Rh1 0.50000 0.00000 0.36631 0 0 0
 O0 0.75000 0.81000 0.36631 0 0 0
 O0 0.75000 0.19000 0.36631 0 0 0
 O0 0.50000 0.50000 0.40017 0 0 0
 O0 0.50000 0.00000 0.42157 0 0 0
 Rh1 0.75000 0.00000 0.45544 0 0 0
 Rh1 0.50000 0.50000 0.45544 0 0 0
 O0 0.75000 0.69000 0.45544 0 0 0
 O0 0.75000 0.31000 0.45544 0 0 0
 O0 0.50000 0.00000 0.48930 0 0 0
 O0 0.50000 0.50000 0.50959 0 0 0
 Rh1 0.75000 0.50000 0.54386 0 0 0
 Rh1 0.50000 0.00000 0.54459 0 0 0
 O0 0.75000 0.80667 0.54445 0 0 0
 O0 0.75000 0.19333 0.54445 0 0 0
 O0 0.50000 0.50000 0.57814 0 0 0
 O0 0.50000 0.00000 0.59926 0 0 0
 Rh1 0.75000 0.00000 0.63431 0 0 0
 Rh1 0.50000 0.50000 0.63123 0 0 0
 O0 0.75000 0.69004 0.63605 0 0 0
 O0 0.75000 0.30996 0.63605 0 0 0
 O0 0.50000 0.00000 0.66753 0 0 0
 O0 0.50000 0.50000 0.66199 1 1 1
CELL_PARAMETERS {angstrom}
 6.22 0.0 0.0
 0.0 6.4346717088 0.0
 0.0 0.0 36.0971828125
