&CONTROL
 calculation = 'relax'
 disk_io = 'none'
 pseudo_dir = '/home/camp/zhonxu/pseudo'
/
&SYSTEM
 ibrav = 0
 nat = 49
 ntyp = 2
 nbnd = 609
 starting_magnetization(1) = 0
 starting_magnetization(2) = 0
 ecutwfc = 40
 ecutrho = 500
 occupations = 'smearing'
 degauss = 0.01
 smearing = 'mp'
 nspin = 1
 Hubbard_U(1) = 0
 Hubbard_U(2) = 0
 Hubbard_alpha(1) = 0
 Hubbard_alpha(2) = 0
/
&ELECTRONS
 mixing_beta = 0.3
/
&IONS
/
&CELL
/
K_POINTS {automatic}
 4 4 1 0 0 0
ATOMIC_SPECIES
 O0 15.9994 o_pbe_v1.01.uspp.F.UPF
 Nb1 92.9064 nb_pbe_v1.uspp.F.UPF
ATOMIC_POSITIONS {crystal}
 O0 0.00000 0.50000 0.32074 0 0 0
 Nb1 0.25000 0.50000 0.35995 0 0 0
 Nb1 0.00000 0.00000 0.35995 0 0 0
 O0 0.25000 0.79000 0.35995 0 0 0
 O0 0.25000 0.21000 0.35995 0 0 0
 O0 0.00000 0.50000 0.39917 0 0 0
 O0 0.00000 0.00000 0.41410 0 0 0
 Nb1 0.25000 0.00000 0.45332 0 0 0
 Nb1 0.00000 0.50000 0.45332 0 0 0
 O0 0.25000 0.71000 0.45332 0 0 0
 O0 0.25000 0.29000 0.45332 0 0 0
 O0 0.00000 0.00000 0.49253 0 0 0
 O0 0.00000 0.50000 0.50660 0 0 0
 Nb1 0.25000 0.50000 0.54490 0 0 0
 Nb1 0.00000 0.00000 0.54768 0 0 0
 O0 0.25000 0.78898 0.54766 0 0 0
 O0 0.25000 0.21102 0.54766 0 0 0
 O0 0.00000 0.50000 0.58529 0 0 0
 O0 0.00000 0.00000 0.60404 0 0 0
 Nb1 0.25000 0.00000 0.64403 0 0 0
 Nb1 0.00000 0.50000 0.63561 0 0 0
 O0 0.25000 0.70018 0.64587 0 0 0
 O0 0.25000 0.29982 0.64587 0 0 0
 O0 0.00000 0.00000 0.67583 0 0 0
 O0 0.50000 0.50000 0.32074 0 0 0
 Nb1 0.75000 0.50000 0.35995 0 0 0
 Nb1 0.50000 0.00000 0.35995 0 0 0
 O0 0.75000 0.79000 0.35995 0 0 0
 O0 0.75000 0.21000 0.35995 0 0 0
 O0 0.50000 0.50000 0.39917 0 0 0
 O0 0.50000 0.00000 0.41410 0 0 0
 Nb1 0.75000 0.00000 0.45332 0 0 0
 Nb1 0.50000 0.50000 0.45332 0 0 0
 O0 0.75000 0.71000 0.45332 0 0 0
 O0 0.75000 0.29000 0.45332 0 0 0
 O0 0.50000 0.00000 0.49253 0 0 0
 O0 0.50000 0.50000 0.50660 0 0 0
 Nb1 0.75000 0.50000 0.54490 0 0 0
 Nb1 0.50000 0.00000 0.54768 0 0 0
 O0 0.75000 0.78898 0.54766 0 0 0
 O0 0.75000 0.21102 0.54766 0 0 0
 O0 0.50000 0.50000 0.58529 0 0 0
 O0 0.50000 0.00000 0.60404 0 0 0
 Nb1 0.75000 0.00000 0.64403 0 0 0
 Nb1 0.50000 0.50000 0.63561 0 0 0
 O0 0.75000 0.70018 0.64587 0 0 0
 O0 0.75000 0.29982 0.64587 0 0 0
 O0 0.50000 0.00000 0.67583 0 0 0
 O0 0.50000 0.50000 0.67049 1 1 1
CELL_PARAMETERS {angstrom}
 5.92 0.0 0.0
 0.0 6.98621499812 0.0
 0.0 0.0 37.4135327964
