&CONTROL
 calculation = 'relax'
 disk_io = 'none'
 pseudo_dir = '/home/camp/zhonxu/pseudo'
/
&SYSTEM
 ibrav = 0
 nat = 31
 ntyp = 3
 nbnd = 345
 tot_magnetization = 22
 starting_magnetization(1) = 0
 starting_magnetization(2) = 0.6
 starting_magnetization(3) = 0
 ecutwfc = 40
 ecutrho = 500
 occupations = 'smearing'
 degauss = 0.01
 smearing = 'mp'
 nspin = 2
 Hubbard_U(1) = 0
 Hubbard_U(2) = 0
 Hubbard_U(3) = 0
 Hubbard_alpha(1) = 0
 Hubbard_alpha(2) = 0
 Hubbard_alpha(3) = 0
/
&ELECTRONS
 mixing_beta = 0.1
/
&IONS
/
&CELL
/
K_POINTS {automatic}
 4 4 1 0 0 0
ATOMIC_SPECIES
 O0 15.9994 o_pbe_v1.01.uspp.F.UPF
 Mn1 54.938 mn_pbe_v1.uspp.F.UPF
 H2 1.00794 h_pbe_v1.uspp.F.UPF
ATOMIC_POSITIONS {crystal}
 O0 0.00000 0.00000 0.37875 0 0 1
 O0 0.00000 0.50000 0.39890 0 0 1
 Mn1 0.25000 0.50000 0.45038 0 0 1
 Mn1 0.00000 0.00000 0.44949 0 0 1
 O0 0.25000 0.80000 0.44937 0 0 1
 O0 0.25000 0.20000 0.45070 0 0 1
 O0 0.00000 0.50000 0.49646 0 0 1
 O0 0.00000 0.00000 0.52462 0 0 1
 Mn1 0.25000 0.00000 0.57352 0 0 1
 Mn1 0.00000 0.50000 0.56668 0 0 1
 O0 0.25000 0.70000 0.57379 0 0 1
 O0 0.25000 0.30000 0.57384 0 0 1
 O0 0.00000 0.00000 0.61764 0 0 1
 O0 0.50000 0.00000 0.37881 0 0 1
 O0 0.50000 0.50000 0.39864 0 0 1
 Mn1 0.75000 0.50000 0.45038 0 0 1
 Mn1 0.50000 0.00000 0.44979 0 0 1
 O0 0.75000 0.80000 0.44936 0 0 1
 O0 0.75000 0.20000 0.45071 0 0 1
 O0 0.50000 0.50000 0.49627 0 0 1
 O0 0.50000 0.00000 0.52466 0 0 1
 Mn1 0.75000 0.00000 0.57352 0 0 1
 Mn1 0.50000 0.50000 0.58366 0 0 1
 O0 0.75000 0.70000 0.57379 0 0 1
 O0 0.75000 0.30000 0.57384 0 0 1
 O0 0.50000 0.00000 0.61757 0 0 1
 H2 -0.00004 0.64527 0.38211 1 1 1
 H2 0.49994 0.64592 0.38199 1 1 1
 H2 0.16118 0.03613 0.36679 1 1 1
 H2 0.66124 0.03601 0.36682 1 1 1
 O0 0.50002 0.50000 0.64433 1 1 1
CELL_PARAMETERS {angstrom}
 5.68 0.0 0.0
 0.0 6.16597113195 0.0
 0.0 0.0 26.1659711319
