&CONTROL
 calculation = 'relax'
 tstress = .True.
 tprnfor = .True.
 disk_io = 'none'
 pseudo_dir = '/home/camp/zhonxu/pseudo'
/
&SYSTEM
 ibrav = 0
 nat = 50
 ntyp = 3
 nbnd = 658
 starting_magnetization(1) = 0
 starting_magnetization(2) = 0
 starting_magnetization(3) = 0
 ecutwfc = 40
 ecutrho = 500
 occupations = 'smearing'
 degauss = 0.01
 smearing = 'mp'
 nspin = 1
 Hubbard_U(1) = 0
 Hubbard_U(2) = 0
 Hubbard_U(3) = 0
 Hubbard_alpha(1) = 0
 Hubbard_alpha(2) = 0
 Hubbard_alpha(3) = 0
/
&ELECTRONS
 mixing_beta = 0.3
/
&IONS
/
&CELL
/
K_POINTS {automatic}
 4 4 1 0 0 0
ATOMIC_SPECIES
 O0 15.9994 o_pbe_v1.01.uspp.F.UPF
 Rh1 102.9055 rh_pbe_v1.uspp.F.UPF
 H2 1.00794 h_pbe_v1.uspp.F.UPF
ATOMIC_POSITIONS {crystal}
 O0 0.00000 0.50000 0.33244 0 0 0
 Rh1 0.25000 0.50000 0.36631 0 0 0
 Rh1 0.00000 0.00000 0.36631 0 0 0
 O0 0.25000 0.81000 0.36631 0 0 0
 O0 0.25000 0.19000 0.36631 0 0 0
 O0 0.00000 0.50000 0.40017 0 0 0
 O0 0.00000 0.00000 0.42157 0 0 0
 Rh1 0.25000 0.00000 0.45544 0 0 0
 Rh1 0.00000 0.50000 0.45544 0 0 0
 O0 0.25000 0.69000 0.45544 0 0 0
 O0 0.25000 0.31000 0.45544 0 0 0
 O0 0.00000 0.00000 0.48930 0 0 0
 O0 0.00010 0.50000 0.51005 1 1 1
 Rh1 0.25260 0.50000 0.54416 1 1 1
 Rh1 0.00018 0.00000 0.54446 1 1 1
 O0 0.25042 0.80691 0.54427 1 1 1
 O0 0.25042 0.19309 0.54427 1 1 1
 O0 0.00035 0.50000 0.57780 1 1 1
 O0 0.00060 0.00000 0.59912 1 1 1
 Rh1 0.24992 0.00000 0.63408 1 1 1
 Rh1 -0.00165 0.50000 0.63052 1 1 1
 O0 0.24678 0.69116 0.63500 1 1 1
 O0 0.24678 0.30884 0.63500 1 1 1
 O0 0.00001 0.00000 0.66743 1 1 1
 O0 0.50000 0.50000 0.33244 0 0 0
 Rh1 0.75000 0.50000 0.36631 0 0 0
 Rh1 0.50000 0.00000 0.36631 0 0 0
 O0 0.75000 0.81000 0.36631 0 0 0
 O0 0.75000 0.19000 0.36631 0 0 0
 O0 0.50000 0.50000 0.40017 0 0 0
 O0 0.50000 0.00000 0.42157 0 0 0
 Rh1 0.75000 0.00000 0.45544 0 0 0
 Rh1 0.50000 0.50000 0.45544 0 0 0
 O0 0.75000 0.69000 0.45544 0 0 0
 O0 0.75000 0.31000 0.45544 0 0 0
 O0 0.50000 0.00000 0.48930 0 0 0
 O0 0.50016 0.50000 0.50976 1 1 1
 Rh1 0.74759 0.50000 0.54418 1 1 1
 Rh1 0.50012 0.00000 0.54447 1 1 1
 O0 0.74988 0.80686 0.54437 1 1 1
 O0 0.74988 0.19314 0.54437 1 1 1
 O0 0.49958 0.50000 0.57890 1 1 1
 O0 0.49965 0.00000 0.59896 1 1 1
 Rh1 0.75026 0.00000 0.63400 1 1 1
 Rh1 0.49927 0.50000 0.63454 1 1 1
 O0 0.75158 0.69217 0.63403 1 1 1
 O0 0.75158 0.30783 0.63403 1 1 1
 O0 0.50010 0.00000 0.66708 1 1 1
 O0 0.51621 0.50000 0.68784 1 1 1
 H2 0.36975 0.50000 0.69823 1 1 1
CELL_PARAMETERS {angstrom}
 6.22 0.0 0.0
 0.0 6.4346717088 0.0
 0.0 0.0 36.0971828125
