&CONTROL
 calculation = 'relax'
 tstress = .True.
 tprnfor = .True.
 disk_io = 'none'
 pseudo_dir = '/home/camp/zhonxu/pseudo'
/
&SYSTEM
 ibrav = 0
 nat = 50
 ntyp = 3
 nbnd = 610
 tot_magnetization = 31
 starting_magnetization(1) = 0
 starting_magnetization(2) = 0.6
 starting_magnetization(3) = 0
 ecutwfc = 40
 ecutrho = 500
 occupations = 'smearing'
 degauss = 0.01
 smearing = 'mp'
 nspin = 2
 Hubbard_U(1) = 0
 Hubbard_U(2) = 0
 Hubbard_U(3) = 0
 Hubbard_alpha(1) = 0
 Hubbard_alpha(2) = 0
 Hubbard_alpha(3) = 0
/
&ELECTRONS
 mixing_beta = 0.3
/
&IONS
/
&CELL
/
K_POINTS {automatic}
 4 4 1 0 0 0
ATOMIC_SPECIES
 O0 15.9994 o_pbe_v1.01.uspp.F.UPF
 Cr1 51.996 cr_pbe_v1.uspp.F.UPF
 H2 1.00794 h_pbe_v1.uspp.F.UPF
ATOMIC_POSITIONS {crystal}
 O0 0.00000 0.50000 0.33549 0 0 0
 Cr1 0.25000 0.50000 0.37012 0 0 0
 Cr1 0.00000 0.00000 0.37012 0 0 0
 O0 0.25000 0.80000 0.37012 0 0 0
 O0 0.25000 0.20000 0.37012 0 0 0
 O0 0.00000 0.50000 0.40475 0 0 0
 O0 0.00000 0.00000 0.42207 0 0 0
 Cr1 0.25000 0.00000 0.45671 0 0 0
 Cr1 0.00000 0.50000 0.45671 0 0 0
 O0 0.25000 0.70000 0.45671 0 0 0
 O0 0.25000 0.30000 0.45671 0 0 0
 O0 0.00000 0.00000 0.49134 0 0 0
 O0 -0.00132 0.50000 0.51012 1 1 1
 Cr1 0.25506 0.50000 0.54438 1 1 1
 Cr1 -0.00407 0.00000 0.54563 1 1 1
 O0 0.24708 0.80304 0.54536 1 1 1
 O0 0.24708 0.19696 0.54536 1 1 1
 O0 -0.00042 0.50000 0.57873 1 1 1
 O0 -0.00558 0.00000 0.60004 1 1 1
 Cr1 0.25520 0.00000 0.63307 1 1 1
 Cr1 -0.00085 0.50000 0.62717 1 1 1
 O0 0.24135 0.69356 0.63609 1 1 1
 O0 0.24135 0.30644 0.63609 1 1 1
 O0 -0.00487 0.00000 0.67041 1 1 1
 O0 0.50000 0.50000 0.33549 0 0 0
 Cr1 0.75000 0.50000 0.37012 0 0 0
 Cr1 0.50000 0.00000 0.37012 0 0 0
 O0 0.75000 0.80000 0.37012 0 0 0
 O0 0.75000 0.20000 0.37012 0 0 0
 O0 0.50000 0.50000 0.40475 0 0 0
 O0 0.50000 0.00000 0.42207 0 0 0
 Cr1 0.75000 0.00000 0.45671 0 0 0
 Cr1 0.50000 0.50000 0.45671 0 0 0
 O0 0.75000 0.70000 0.45671 0 0 0
 O0 0.75000 0.30000 0.45671 0 0 0
 O0 0.50000 0.00000 0.49134 0 0 0
 O0 0.49877 0.50000 0.51022 1 1 1
 Cr1 0.74214 0.50000 0.54451 1 1 1
 Cr1 0.49673 0.00000 0.54679 1 1 1
 O0 0.74718 0.80295 0.54538 1 1 1
 O0 0.74718 0.19705 0.54538 1 1 1
 O0 0.49849 0.50000 0.58053 1 1 1
 O0 0.49731 0.00000 0.59868 1 1 1
 Cr1 0.76937 0.00000 0.64136 1 1 1
 Cr1 0.49921 0.50000 0.63818 1 1 1
 O0 0.76107 0.69349 0.63587 1 1 1
 O0 0.76107 0.30651 0.63587 1 1 1
 O0 0.51678 0.00000 0.66564 1 1 1
 O0 0.51341 0.50000 0.68861 1 1 1
 H2 0.36248 0.50000 0.70112 1 1 1
CELL_PARAMETERS {angstrom}
 5.8 0.0 0.0
 0.0 6.19425540319 0.0
 0.0 0.0 35.7690852661
