&CONTROL
 calculation = 'relax'
 disk_io = 'none'
 pseudo_dir = '/home/camp/zhonxu/pseudo'
/
&SYSTEM
 ibrav = 0
 nat = 31
 ntyp = 3
 nbnd = 357
 starting_magnetization(1) = 0
 starting_magnetization(2) = 0
 starting_magnetization(3) = 0
 ecutwfc = 40
 ecutrho = 500
 occupations = 'smearing'
 degauss = 0.01
 smearing = 'mp'
 nspin = 1
 lda_plus_u = .True.
 Hubbard_U(1) = 0
 Hubbard_U(2) = 4
 Hubbard_U(3) = 0
 Hubbard_alpha(1) = 0
 Hubbard_alpha(2) = 0
 Hubbard_alpha(3) = 0
 U_projection_type = 'atomic'
/
&ELECTRONS
 mixing_beta = 0.3
/
&IONS
/
&CELL
/
K_POINTS {automatic}
 4 4 1 0 0 0
ATOMIC_SPECIES
 O0 15.9994 o_pbe_v1.01.uspp.F.UPF
 Rh1 102.9055 rh_pbe_v1.uspp.F.UPF
 H2 1.00794 h_pbe_v1.uspp.F.UPF
ATOMIC_POSITIONS {crystal}
 O0 0.00000 0.00000 0.37799 0 0 1
 O0 0.00000 0.50000 0.40216 0 0 1
 Rh1 0.25000 0.50000 0.45325 0 0 1
 Rh1 0.00000 0.00000 0.45243 0 0 1
 O0 0.25000 0.81000 0.45225 0 0 1
 O0 0.25000 0.19000 0.45213 0 0 1
 O0 0.00000 0.50000 0.49884 0 0 1
 O0 0.00000 0.00000 0.52782 0 0 1
 Rh1 0.25000 0.00000 0.57506 0 0 1
 Rh1 0.00000 0.50000 0.57067 0 0 1
 O0 0.25000 0.69000 0.57490 0 0 1
 O0 0.25000 0.31000 0.57488 0 0 1
 O0 0.00000 0.00000 0.62017 0 0 1
 O0 0.50000 0.00000 0.37799 0 0 1
 O0 0.50000 0.50000 0.40187 0 0 1
 Rh1 0.75000 0.50000 0.45325 0 0 1
 Rh1 0.50000 0.00000 0.45242 0 0 1
 O0 0.75000 0.81000 0.45223 0 0 1
 O0 0.75000 0.19000 0.45215 0 0 1
 O0 0.50000 0.50000 0.50081 0 0 1
 O0 0.50000 0.00000 0.52762 0 0 1
 Rh1 0.75000 0.00000 0.57505 0 0 1
 Rh1 0.50000 0.50000 0.58006 0 0 1
 O0 0.75000 0.69000 0.57487 0 0 1
 O0 0.75000 0.31000 0.57488 0 0 1
 O0 0.50000 0.00000 0.62011 0 0 1
 H2 -0.00007 0.63702 0.38481 1 1 1
 H2 0.49993 0.63850 0.38514 1 1 1
 H2 0.14808 0.03430 0.36722 1 1 1
 H2 0.64811 0.03425 0.36720 1 1 1
 O0 0.50008 0.49883 0.64659 1 1 1
CELL_PARAMETERS {angstrom}
 6.22 0.0 0.0
 0.0 6.4346717088 0.0
 0.0 0.0 26.4346717088
