&CONTROL
 calculation = 'relax'
 disk_io = 'none'
 pseudo_dir = '/home/camp/zhonxu/pseudo'
/
&SYSTEM
 ibrav = 0
 nat = 30
 ntyp = 3
 nbnd = 348
 starting_magnetization(1) = 0
 starting_magnetization(2) = 0
 starting_magnetization(3) = 0
 ecutwfc = 40
 ecutrho = 500
 occupations = 'smearing'
 degauss = 0.01
 smearing = 'mp'
 nspin = 1
 Hubbard_U(1) = 0
 Hubbard_U(2) = 0
 Hubbard_U(3) = 0
 Hubbard_alpha(1) = 0
 Hubbard_alpha(2) = 0
 Hubbard_alpha(3) = 0
/
&ELECTRONS
 mixing_beta = 0.3
/
&IONS
/
&CELL
/
K_POINTS {automatic}
 4 4 1 0 0 0
ATOMIC_SPECIES
 O0 15.9994 o_pbe_v1.01.uspp.F.UPF
 Rh1 102.9055 rh_pbe_v1.uspp.F.UPF
 H2 1.00794 h_pbe_v1.uspp.F.UPF
ATOMIC_POSITIONS {crystal}
 O0 0.00000 0.00000 0.37866 0 0 1
 O0 0.00000 0.50000 0.40047 0 0 1
 Rh1 0.25000 0.50000 0.45198 0 0 1
 Rh1 0.00000 0.00000 0.45320 0 0 1
 O0 0.25000 0.81000 0.45281 0 0 1
 O0 0.25000 0.19000 0.45259 0 0 1
 O0 0.00000 0.50000 0.49848 0 0 1
 O0 0.00000 0.00000 0.52878 0 0 1
 Rh1 0.25000 0.00000 0.57645 0 0 1
 Rh1 0.00000 0.50000 0.57119 0 0 1
 O0 0.25000 0.69000 0.57790 0 0 1
 O0 0.25000 0.31000 0.57792 0 0 1
 O0 0.00000 0.00000 0.62170 0 0 1
 O0 0.50000 0.00000 0.37866 0 0 1
 O0 0.50000 0.50000 0.40048 0 0 1
 Rh1 0.75000 0.50000 0.45198 0 0 1
 Rh1 0.50000 0.00000 0.45320 0 0 1
 O0 0.75000 0.81000 0.45281 0 0 1
 O0 0.75000 0.19000 0.45259 0 0 1
 O0 0.50000 0.50000 0.49848 0 0 1
 O0 0.50000 0.00000 0.52878 0 0 1
 Rh1 0.75000 0.00000 0.57645 0 0 1
 Rh1 0.50000 0.50000 0.57119 0 0 1
 O0 0.75000 0.69000 0.57790 0 0 1
 O0 0.75000 0.31000 0.57792 0 0 1
 O0 0.50000 0.00000 0.62170 0 0 1
 H2 -0.00007 0.63901 0.38397 1 1 1
 H2 0.49993 0.63901 0.38397 1 1 1
 H2 0.14847 0.03250 0.36782 1 1 1
 H2 0.64847 0.03250 0.36782 1 1 1
CELL_PARAMETERS {angstrom}
 6.22 0.0 0.0
 0.0 6.4346717088 0.0
 0.0 0.0 26.4346717088
