&CONTROL
 calculation = 'relax'
 disk_io = 'none'
 pseudo_dir = '/home/camp/zhonxu/pseudo'
/
&SYSTEM
 ibrav = 0
 nat = 30
 ntyp = 3
 nbnd = 324
 tot_magnetization = 16
 starting_magnetization(1) = 0
 starting_magnetization(2) = 0.6
 starting_magnetization(3) = 0
 ecutwfc = 40
 ecutrho = 500
 occupations = 'smearing'
 degauss = 0.01
 smearing = 'mp'
 nspin = 2
 lda_plus_u = .True.
 Hubbard_U(1) = 0
 Hubbard_U(2) = 3
 Hubbard_U(3) = 0
 Hubbard_alpha(1) = 0
 Hubbard_alpha(2) = 0
 Hubbard_alpha(3) = 0
 U_projection_type = 'atomic'
/
&ELECTRONS
/
&IONS
/
&CELL
/
K_POINTS {automatic}
 4 4 1 0 0 0
ATOMIC_SPECIES
 O0 15.9994 o_pbe_v1.01.uspp.F.UPF
 Cr1 51.996 cr_pbe_v1.uspp.F.UPF
 H2 1.00794 h_pbe_v1.uspp.F.UPF
ATOMIC_POSITIONS {crystal}
 O0 0.00000 0.00000 0.38044 0 0 1
 O0 0.00000 0.50000 0.39875 0 0 1
 Cr1 0.25000 0.50000 0.44949 0 0 1
 Cr1 0.00000 0.00000 0.45200 0 0 1
 O0 0.25000 0.80000 0.45102 0 0 1
 O0 0.25000 0.20000 0.45122 0 0 1
 O0 0.00000 0.50000 0.49756 0 0 1
 O0 0.00000 0.00000 0.52479 0 0 1
 Cr1 0.25000 0.00000 0.57746 0 0 1
 Cr1 0.00000 0.50000 0.56541 0 0 1
 O0 0.25000 0.70000 0.57534 0 0 1
 O0 0.25000 0.30000 0.57532 0 0 1
 O0 0.00000 0.00000 0.61801 0 0 1
 O0 0.50000 0.00000 0.38044 0 0 1
 O0 0.50000 0.50000 0.39875 0 0 1
 Cr1 0.75000 0.50000 0.44949 0 0 1
 Cr1 0.50000 0.00000 0.45200 0 0 1
 O0 0.75000 0.80000 0.45102 0 0 1
 O0 0.75000 0.20000 0.45122 0 0 1
 O0 0.50000 0.50000 0.49756 0 0 1
 O0 0.50000 0.00000 0.52479 0 0 1
 Cr1 0.75000 0.00000 0.57746 0 0 1
 Cr1 0.50000 0.50000 0.56541 0 0 1
 O0 0.75000 0.70000 0.57534 0 0 1
 O0 0.75000 0.30000 0.57532 0 0 1
 O0 0.50000 0.00000 0.61801 0 0 1
 H2 -0.00069 0.64152 0.38078 1 1 1
 H2 0.49931 0.64152 0.38078 1 1 1
 H2 0.15734 0.02964 0.36744 1 1 1
 H2 0.65735 0.02964 0.36744 1 1 1
CELL_PARAMETERS {angstrom}
 5.8 0.0 0.0
 0.0 6.19425540319 0.0
 0.0 0.0 26.1942554032
