&CONTROL
 calculation = 'relax'
 tstress = .True.
 tprnfor = .True.
 disk_io = 'none'
 pseudo_dir = '/home/camp/zhonxu/pseudo'
/
&SYSTEM
 ibrav = 0
 nat = 49
 ntyp = 2
 nbnd = 657
 starting_magnetization(1) = 0
 starting_magnetization(2) = 0
 ecutwfc = 40
 ecutrho = 500
 occupations = 'smearing'
 degauss = 0.01
 smearing = 'mp'
 nspin = 1
 Hubbard_U(1) = 0
 Hubbard_U(2) = 0
 Hubbard_alpha(1) = 0
 Hubbard_alpha(2) = 0
/
&ELECTRONS
 mixing_beta = 0.3
/
&IONS
/
&CELL
/
K_POINTS {automatic}
 4 4 1 0 0 0
ATOMIC_SPECIES
 O0 15.9994 o_pbe_v1.01.uspp.F.UPF
 Ir1 192.22 ir_pbe_v1.uspp.F.UPF
ATOMIC_POSITIONS {crystal}
 O0 0.00000 0.50000 0.33268 0 0 0
 Ir1 0.25000 0.50000 0.36650 0 0 0
 Ir1 0.00000 0.00000 0.36650 0 0 0
 O0 0.25000 0.81000 0.36650 0 0 0
 O0 0.25000 0.19000 0.36650 0 0 0
 O0 0.00000 0.50000 0.40032 0 0 0
 O0 0.00000 0.00000 0.42168 0 0 0
 Ir1 0.25000 0.00000 0.45550 0 0 0
 Ir1 0.00000 0.50000 0.45550 0 0 0
 O0 0.25000 0.69000 0.45550 0 0 0
 O0 0.25000 0.31000 0.45550 0 0 0
 O0 0.00000 0.00000 0.48932 0 0 0
 O0 0.00000 0.50000 0.51056 1 1 1
 Ir1 0.25263 0.50000 0.54464 1 1 1
 Ir1 0.00000 0.00000 0.54467 1 1 1
 O0 0.25047 0.80847 0.54463 1 1 1
 O0 0.25047 0.19153 0.54463 1 1 1
 O0 0.00000 0.50000 0.57793 1 1 1
 O0 0.00000 0.00000 0.59939 1 1 1
 Ir1 0.25035 0.00000 0.63385 1 1 1
 Ir1 0.00000 0.50000 0.63145 1 1 1
 O0 0.25018 0.69052 0.63371 1 1 1
 O0 0.25018 0.30948 0.63371 1 1 1
 O0 0.00000 0.00000 0.66648 1 1 1
 O0 0.50000 0.50000 0.33268 0 0 0
 Ir1 0.75000 0.50000 0.36650 0 0 0
 Ir1 0.50000 0.00000 0.36650 0 0 0
 O0 0.75000 0.81000 0.36650 0 0 0
 O0 0.75000 0.19000 0.36650 0 0 0
 O0 0.50000 0.50000 0.40032 0 0 0
 O0 0.50000 0.00000 0.42168 0 0 0
 Ir1 0.75000 0.00000 0.45550 0 0 0
 Ir1 0.50000 0.50000 0.45550 0 0 0
 O0 0.75000 0.69000 0.45550 0 0 0
 O0 0.75000 0.31000 0.45550 0 0 0
 O0 0.50000 0.00000 0.48932 0 0 0
 O0 0.50000 0.50000 0.51028 1 1 1
 Ir1 0.74737 0.50000 0.54464 1 1 1
 Ir1 0.50000 0.00000 0.54459 1 1 1
 O0 0.74953 0.80847 0.54463 1 1 1
 O0 0.74953 0.19153 0.54463 1 1 1
 O0 0.50000 0.50000 0.57960 1 1 1
 O0 0.50000 0.00000 0.59918 1 1 1
 Ir1 0.74965 0.00000 0.63385 1 1 1
 Ir1 0.50000 0.50000 0.63690 1 1 1
 O0 0.74982 0.69052 0.63371 1 1 1
 O0 0.74982 0.30948 0.63371 1 1 1
 O0 0.50000 0.00000 0.66635 1 1 1
 O0 0.50000 0.50000 0.68597 1 1 1
CELL_PARAMETERS {angstrom}
 6.36 0.0 0.0
 0.0 6.42052957317 0.0
 0.0 0.0 36.0705955976
