&CONTROL
 calculation = 'relax'
 tstress = .True.
 tprnfor = .True.
 disk_io = 'none'
 pseudo_dir = '/home/camp/zhonxu/pseudo'
/
&SYSTEM
 ibrav = 0
 nat = 32
 ntyp = 3
 nbnd = 334
 tot_magnetization = 15
 starting_magnetization(1) = 0
 starting_magnetization(2) = 0.6
 starting_magnetization(3) = 0
 ecutwfc = 40
 ecutrho = 500
 occupations = 'smearing'
 degauss = 0.01
 smearing = 'mp'
 nspin = 2
 lda_plus_u = .True.
 Hubbard_U(1) = 0
 Hubbard_U(2) = 7.5
 Hubbard_U(3) = 0
 Hubbard_alpha(1) = 0
 Hubbard_alpha(2) = 0
 Hubbard_alpha(3) = 0
 U_projection_type = 'atomic'
/
&ELECTRONS
/
&IONS
/
&CELL
/
K_POINTS {automatic}
 4 4 1 0 0 0
ATOMIC_SPECIES
 O0 15.9994 o_pbe_v1.01.uspp.F.UPF
 Cr1 51.996 cr_pbe_v1.uspp.F.UPF
 H2 1.00794 h_pbe_v1.uspp.F.UPF
ATOMIC_POSITIONS {crystal}
 O0 0.00000 0.00000 0.37270 0 0 1
 O0 0.00000 0.50000 0.39368 0 0 1
 Cr1 0.25000 0.50000 0.44677 0 0 1
 Cr1 0.00000 0.00000 0.44882 0 0 1
 O0 0.25000 0.80000 0.44778 0 0 1
 O0 0.25000 0.20000 0.44779 0 0 1
 O0 0.00000 0.50000 0.49632 0 0 1
 O0 0.00000 0.00000 0.52557 0 0 1
 Cr1 0.25000 0.00000 0.57768 0 0 1
 Cr1 0.00000 0.50000 0.56722 0 0 1
 O0 0.25000 0.70000 0.57804 0 0 1
 O0 0.25000 0.30000 0.57809 0 0 1
 O0 0.00000 0.00000 0.62673 0 0 1
 O0 0.50000 0.00000 0.37250 0 0 1
 O0 0.50000 0.50000 0.39392 0 0 1
 Cr1 0.75000 0.50000 0.44676 0 0 1
 Cr1 0.50000 0.00000 0.44856 0 0 1
 O0 0.75000 0.80000 0.44775 0 0 1
 O0 0.75000 0.20000 0.44778 0 0 1
 O0 0.50000 0.50000 0.49976 0 0 1
 O0 0.50000 0.00000 0.52563 0 0 1
 Cr1 0.75000 0.00000 0.57775 0 0 1
 Cr1 0.50000 0.50000 0.58092 0 0 1
 O0 0.75000 0.70000 0.57679 0 0 1
 O0 0.75000 0.30000 0.57675 0 0 1
 O0 0.50000 0.00000 0.62685 0 0 1
 H2 -0.00066 0.63640 0.37409 1 1 1
 H2 0.49936 0.63678 0.37448 1 1 1
 H2 0.15856 0.02808 0.35999 1 1 1
 H2 0.65885 0.02778 0.35993 1 1 1
 O0 0.51964 0.49929 0.65433 1 1 1
 H2 0.36761 0.49742 0.67097 1 1 1
CELL_PARAMETERS {angstrom}
 5.8 0.0 0.0
 0.0 6.19425540319 0.0
 0.0 0.0 26.1942554032
