&CONTROL
 outdir = 'alpha_0.07/'
 pseudo_dir = '/home/camp/zhonxu/pseudo'
/
&SYSTEM
 ibrav = 0
 nat = 48
 ntyp = 3
 nbnd = 600
 starting_magnetization(1) = 0
 starting_magnetization(2) = 0
 starting_magnetization(3) = 0
 ecutwfc = 40
 ecutrho = 500
 occupations = 'smearing'
 degauss = 0.01
 smearing = 'mp'
 nspin = 2
 lda_plus_u = .True.
 Hubbard_U(1) = 1e-20
 Hubbard_U(2) = 1e-20
 Hubbard_U(3) = 1e-20
 Hubbard_alpha(1) = 0
 Hubbard_alpha(2) = 0.07
 Hubbard_alpha(3) = 0
 U_projection_type = 'atomic'
/
&ELECTRONS
 startingwfc = 'file'
 startingpot = 'file'
 diago_thr_init = 2.56e-09
/
&IONS
/
&CELL
/
K_POINTS {automatic}
 4 4 4 0 0 0
ATOMIC_SPECIES
 Nb0 92.9064 nb_pbe_v1.uspp.F.UPF
 O1 15.9994 o_pbe_v1.01.uspp.F.UPF
 O2 15.9994 o_pbe_v1.01.uspp.F.UPF
ATOMIC_POSITIONS {crystal}
 Nb0 -0.14500 -0.14500 0.00000
 Nb0 0.10500 0.10500 0.25000
 Nb0 -0.14500 -0.14500 0.50000
 Nb0 0.10500 0.10500 0.75000
 Nb0 -0.14500 0.35500 0.00000
 Nb0 0.10500 0.60500 0.25000
 Nb0 -0.14500 0.35500 0.50000
 Nb0 0.10500 0.60500 0.75000
 Nb0 0.35500 -0.14500 0.00000
 Nb0 0.60500 0.10500 0.25000
 Nb0 0.35500 -0.14500 0.50000
 Nb0 0.60500 0.10500 0.75000
 Nb0 0.35500 0.35500 0.00000
 Nb0 0.60500 0.60500 0.25000
 Nb0 0.35500 0.35500 0.50000
 Nb0 0.60500 0.60500 0.75000
 O1 0.00000 0.00000 0.00000
 O2 -0.29000 -0.29000 0.00000
 O2 0.25000 -0.04000 0.25000
 O2 -0.04000 0.25000 0.25000
 O2 0.00000 0.00000 0.50000
 O2 -0.29000 -0.29000 0.50000
 O2 0.25000 -0.04000 0.75000
 O2 -0.04000 0.25000 0.75000
 O2 0.00000 0.50000 0.00000
 O2 -0.29000 0.21000 0.00000
 O2 0.25000 0.46000 0.25000
 O2 -0.04000 0.75000 0.25000
 O2 0.00000 0.50000 0.50000
 O2 -0.29000 0.21000 0.50000
 O2 0.25000 0.46000 0.75000
 O2 -0.04000 0.75000 0.75000
 O2 0.50000 0.00000 0.00000
 O2 0.21000 -0.29000 0.00000
 O2 0.75000 -0.04000 0.25000
 O2 0.46000 0.25000 0.25000
 O2 0.50000 0.00000 0.50000
 O2 0.21000 -0.29000 0.50000
 O2 0.75000 -0.04000 0.75000
 O2 0.46000 0.25000 0.75000
 O2 0.50000 0.50000 0.00000
 O2 0.21000 0.21000 0.00000
 O2 0.75000 0.46000 0.25000
 O2 0.46000 0.75000 0.25000
 O2 0.50000 0.50000 0.50000
 O2 0.21000 0.21000 0.50000
 O2 0.75000 0.46000 0.75000
 O2 0.46000 0.75000 0.75000
CELL_PARAMETERS {angstrom}
 9.88 0.0 0.0
 0.0 9.88 0.0
 0.0 0.0 5.92
