&CONTROL
 calculation = 'relax'
 tstress = .True.
 tprnfor = .True.
 disk_io = 'none'
 pseudo_dir = '/home/camp/zhonxu/pseudo'
/
&SYSTEM
 ibrav = 0
 nat = 33
 ntyp = 3
 nbnd = 355
 tot_magnetization = 23
 starting_magnetization(1) = 0
 starting_magnetization(2) = 0.6
 starting_magnetization(3) = 0
 ecutwfc = 40
 ecutrho = 500
 occupations = 'smearing'
 degauss = 0.01
 smearing = 'mp'
 nspin = 2
 Hubbard_U(1) = 0
 Hubbard_U(2) = 0
 Hubbard_U(3) = 0
 Hubbard_alpha(1) = 0
 Hubbard_alpha(2) = 0
 Hubbard_alpha(3) = 0
/
&ELECTRONS
/
&IONS
/
&CELL
/
K_POINTS {automatic}
 4 4 1 0 0 0
ATOMIC_SPECIES
 O0 15.9994 o_pbe_v1.01.uspp.F.UPF
 Mn1 54.938 mn_pbe_v1.uspp.F.UPF
 H2 1.00794 h_pbe_v1.uspp.F.UPF
ATOMIC_POSITIONS {crystal}
 O0 0.00000 0.00000 0.37878 0 0 1
 O0 0.00000 0.50000 0.40078 0 0 1
 Mn1 0.25000 0.50000 0.45192 0 0 1
 Mn1 0.00000 0.00000 0.44993 0 0 1
 O0 0.25000 0.80000 0.44968 0 0 1
 O0 0.25000 0.20000 0.45108 0 0 1
 O0 0.00000 0.50000 0.49810 0 0 1
 O0 0.00000 0.00000 0.52441 0 0 1
 Mn1 0.25000 0.00000 0.57367 0 0 1
 Mn1 0.00000 0.50000 0.56836 0 0 1
 O0 0.25000 0.70000 0.57516 0 0 1
 O0 0.25000 0.30000 0.57878 0 0 1
 O0 0.00000 0.00000 0.61742 0 0 1
 O0 0.50000 0.00000 0.37898 0 0 1
 O0 0.50000 0.50000 0.40094 0 0 1
 Mn1 0.75000 0.50000 0.45192 0 0 1
 Mn1 0.50000 0.00000 0.45020 0 0 1
 O0 0.75000 0.80000 0.44965 0 0 1
 O0 0.75000 0.20000 0.45113 0 0 1
 O0 0.50000 0.50000 0.49887 0 0 1
 O0 0.50000 0.00000 0.52439 0 0 1
 Mn1 0.75000 0.00000 0.57368 0 0 1
 Mn1 0.50000 0.50000 0.57869 0 0 1
 O0 0.75000 0.70000 0.57516 0 0 1
 O0 0.75000 0.30000 0.57880 0 0 1
 O0 0.50000 0.00000 0.61688 0 0 1
 H2 0.00007 0.64624 0.38435 1 1 1
 H2 0.50008 0.64638 0.38456 1 1 1
 H2 0.16106 0.03647 0.36676 1 1 1
 H2 0.66113 0.03660 0.36701 1 1 1
 O0 0.49986 0.53631 0.64814 0 1 1
 O0 0.50029 0.33901 0.67717 0 1 1
 H2 0.49986 0.40117 0.71197 0 1 1
CELL_PARAMETERS {angstrom}
 5.68 0.0 0.0
 0.0 6.16597113195 0.0
 0.0 0.0 26.1659711319
