&CONTROL
 calculation = 'relax'
 tstress = .True.
 tprnfor = .True.
 disk_io = 'none'
 pseudo_dir = '/home/camp/zhonxu/pseudo'
/
&SYSTEM
 ibrav = 0
 nat = 31
 ntyp = 3
 nbnd = 345
 tot_magnetization = 22
 starting_magnetization(1) = 0
 starting_magnetization(2) = 0.6
 starting_magnetization(3) = 0
 ecutwfc = 40
 ecutrho = 500
 occupations = 'smearing'
 degauss = 0.01
 smearing = 'mp'
 nspin = 2
 lda_plus_u = .True.
 Hubbard_U(1) = 0
 Hubbard_U(2) = 5
 Hubbard_U(3) = 0
 Hubbard_alpha(1) = 0
 Hubbard_alpha(2) = 0
 Hubbard_alpha(3) = 0
 U_projection_type = 'atomic'
/
&ELECTRONS
/
&IONS
/
&CELL
/
K_POINTS {automatic}
 4 4 1 0 0 0
ATOMIC_SPECIES
 O0 15.9994 o_pbe_v1.01.uspp.F.UPF
 Mn1 54.938 mn_pbe_v1.uspp.F.UPF
 H2 1.00794 h_pbe_v1.uspp.F.UPF
ATOMIC_POSITIONS {crystal}
 O0 0.00000 0.00000 0.37463 0 0 1
 O0 0.00000 0.50000 0.39604 0 0 1
 Mn1 0.25000 0.50000 0.44840 0 0 1
 Mn1 0.00000 0.00000 0.44730 0 0 1
 O0 0.25000 0.80000 0.44639 0 0 1
 O0 0.25000 0.20000 0.44946 0 0 1
 O0 0.00000 0.50000 0.49522 0 0 1
 O0 0.00000 0.00000 0.52487 0 0 1
 Mn1 0.25000 0.00000 0.57405 0 0 1
 Mn1 0.00000 0.50000 0.57345 0 0 1
 O0 0.25000 0.70000 0.58139 0 0 1
 O0 0.25000 0.30000 0.58174 0 0 1
 O0 0.00000 0.00000 0.62176 0 0 1
 O0 0.50000 0.00000 0.37449 0 0 1
 O0 0.50000 0.50000 0.39586 0 0 1
 Mn1 0.75000 0.50000 0.44839 0 0 1
 Mn1 0.50000 0.00000 0.44702 0 0 1
 O0 0.75000 0.80000 0.44638 0 0 1
 O0 0.75000 0.20000 0.44948 0 0 1
 O0 0.50000 0.50000 0.49762 0 0 1
 O0 0.50000 0.00000 0.52502 0 0 1
 Mn1 0.75000 0.00000 0.57404 0 0 1
 Mn1 0.50000 0.50000 0.57415 0 0 1
 O0 0.75000 0.70000 0.58139 0 0 1
 O0 0.75000 0.30000 0.58175 0 0 1
 O0 0.50000 0.00000 0.62224 0 0 1
 H2 0.00051 0.64787 0.38040 1 1 1
 H2 0.50047 0.64738 0.38012 1 1 1
 H2 0.16099 0.04283 0.36379 1 1 1
 H2 0.66128 0.04308 0.36386 1 1 1
 O0 0.49993 0.50096 0.64646 1 1 1
CELL_PARAMETERS {angstrom}
 5.68 0.0 0.0
 0.0 6.16597113195 0.0
 0.0 0.0 26.1659711319
