&CONTROL
 calculation = 'relax'
 disk_io = 'none'
 pseudo_dir = '/home/camp/zhonxu/pseudo'
/
&SYSTEM
 ibrav = 0
 nat = 30
 ntyp = 3
 nbnd = 324
 starting_magnetization(1) = 0
 starting_magnetization(2) = 0
 starting_magnetization(3) = 0
 ecutwfc = 40
 ecutrho = 500
 occupations = 'smearing'
 degauss = 0.01
 smearing = 'mp'
 nspin = 1
 lda_plus_u = .True.
 Hubbard_U(1) = 0
 Hubbard_U(2) = 2
 Hubbard_U(3) = 0
 Hubbard_alpha(1) = 0
 Hubbard_alpha(2) = 0
 Hubbard_alpha(3) = 0
 U_projection_type = 'atomic'
/
&ELECTRONS
/
&IONS
/
&CELL
/
K_POINTS {automatic}
 4 4 1 0 0 0
ATOMIC_SPECIES
 O0 15.9994 o_pbe_v1.01.uspp.F.UPF
 Nb1 92.9064 nb_pbe_v1.uspp.F.UPF
 H2 1.00794 h_pbe_v1.uspp.F.UPF
ATOMIC_POSITIONS {crystal}
 O0 0.00000 0.00000 0.37470 0 0 1
 O0 0.00000 0.50000 0.38574 0 0 1
 Nb1 0.25000 0.50000 0.44020 0 0 1
 Nb1 0.00000 0.00000 0.44755 0 0 1
 O0 0.25000 0.79000 0.44816 0 0 1
 O0 0.25000 0.21000 0.44820 0 0 1
 O0 0.00000 0.50000 0.49819 0 0 1
 O0 0.00000 0.00000 0.52647 0 0 1
 Nb1 0.25000 0.00000 0.58110 0 0 1
 Nb1 0.00000 0.50000 0.56747 0 0 1
 O0 0.25000 0.71000 0.58012 0 0 1
 O0 0.25000 0.29000 0.58013 0 0 1
 O0 0.00000 0.00000 0.62562 0 0 1
 O0 0.50000 0.00000 0.37470 0 0 1
 O0 0.50000 0.50000 0.38574 0 0 1
 Nb1 0.75000 0.50000 0.44020 0 0 1
 Nb1 0.50000 0.00000 0.44755 0 0 1
 O0 0.75000 0.79000 0.44816 0 0 1
 O0 0.75000 0.21000 0.44820 0 0 1
 O0 0.50000 0.50000 0.49819 0 0 1
 O0 0.50000 0.00000 0.52648 0 0 1
 Nb1 0.75000 0.00000 0.58110 0 0 1
 Nb1 0.50000 0.50000 0.56746 0 0 1
 O0 0.75000 0.71000 0.58012 0 0 1
 O0 0.75000 0.29000 0.58013 0 0 1
 O0 0.50000 0.00000 0.62562 0 0 1
 H2 -0.00042 0.50291 0.34943 1 1 1
 H2 0.49958 0.50268 0.34942 1 1 1
 H2 0.15130 -0.00122 0.35917 1 1 1
 H2 0.65129 -0.00122 0.35917 1 1 1
CELL_PARAMETERS {angstrom}
 5.92 0.0 0.0
 0.0 6.98621499812 0.0
 0.0 0.0 26.9862149981
