&CONTROL
 calculation = 'relax'
 disk_io = 'none'
 pseudo_dir = '/home/camp/zhonxu/pseudo'
/
&SYSTEM
 ibrav = 0
 nat = 32
 ntyp = 3
 nbnd = 346
 tot_magnetization = 23
 starting_magnetization(1) = 0
 starting_magnetization(2) = 0.6
 starting_magnetization(3) = 0
 ecutwfc = 40
 ecutrho = 500
 occupations = 'smearing'
 degauss = 0.01
 smearing = 'mp'
 nspin = 2
 lda_plus_u = .True.
 Hubbard_U(1) = 0
 Hubbard_U(2) = 1
 Hubbard_U(3) = 0
 Hubbard_alpha(1) = 0
 Hubbard_alpha(2) = 0
 Hubbard_alpha(3) = 0
 U_projection_type = 'atomic'
/
&ELECTRONS
/
&IONS
/
&CELL
/
K_POINTS {automatic}
 4 4 1 0 0 0
ATOMIC_SPECIES
 O0 15.9994 o_pbe_v1.01.uspp.F.UPF
 Mn1 54.938 mn_pbe_v1.uspp.F.UPF
 H2 1.00794 h_pbe_v1.uspp.F.UPF
ATOMIC_POSITIONS {crystal}
 O0 0.00000 0.00000 0.37802 0 0 1
 O0 0.00000 0.50000 0.39901 0 0 1
 Mn1 0.25000 0.50000 0.45022 0 0 1
 Mn1 0.00000 0.00000 0.44905 0 0 1
 O0 0.25000 0.80000 0.44888 0 0 1
 O0 0.25000 0.20000 0.45016 0 0 1
 O0 0.00000 0.50000 0.49653 0 0 1
 O0 0.00000 0.00000 0.52385 0 0 1
 Mn1 0.25000 0.00000 0.57308 0 0 1
 Mn1 0.00000 0.50000 0.56626 0 0 1
 O0 0.25000 0.70000 0.57637 0 0 1
 O0 0.25000 0.30000 0.57647 0 0 1
 O0 0.00000 0.00000 0.61687 0 0 1
 O0 0.50000 0.00000 0.37834 0 0 1
 O0 0.50000 0.50000 0.39913 0 0 1
 Mn1 0.75000 0.50000 0.45023 0 0 1
 Mn1 0.50000 0.00000 0.44951 0 0 1
 O0 0.75000 0.80000 0.44885 0 0 1
 O0 0.75000 0.20000 0.45019 0 0 1
 O0 0.50000 0.50000 0.49648 0 0 1
 O0 0.50000 0.00000 0.52385 0 0 1
 Mn1 0.75000 0.00000 0.57338 0 0 1
 Mn1 0.50000 0.50000 0.57878 0 0 1
 O0 0.75000 0.70000 0.57468 0 0 1
 O0 0.75000 0.30000 0.57477 0 0 1
 O0 0.50000 0.00000 0.61676 0 0 1
 H2 0.00004 0.64613 0.38250 1 1 1
 H2 0.50009 0.64638 0.38269 1 1 1
 H2 0.16136 0.03669 0.36619 1 1 1
 H2 0.66102 0.03682 0.36635 1 1 1
 O0 0.51539 0.50042 0.64747 1 1 1
 H2 0.35753 0.50024 0.66296 1 1 1
CELL_PARAMETERS {angstrom}
 5.68 0.0 0.0
 0.0 6.16597113195 0.0
 0.0 0.0 26.1659711319
