&CONTROL
 calculation = 'relax'
 tstress = .True.
 tprnfor = .True.
 disk_io = 'none'
 pseudo_dir = '/home/camp/zhonxu/pseudo'
/
&SYSTEM
 ibrav = 0
 nat = 32
 ntyp = 3
 nbnd = 334
 tot_magnetization = 15
 starting_magnetization(1) = 0
 starting_magnetization(2) = 0.6
 starting_magnetization(3) = 0
 ecutwfc = 40
 ecutrho = 500
 occupations = 'smearing'
 degauss = 0.01
 smearing = 'mp'
 nspin = 2
 lda_plus_u = .True.
 Hubbard_U(1) = 0
 Hubbard_U(2) = 8
 Hubbard_U(3) = 0
 Hubbard_alpha(1) = 0
 Hubbard_alpha(2) = 0
 Hubbard_alpha(3) = 0
 U_projection_type = 'atomic'
/
&ELECTRONS
/
&IONS
/
&CELL
/
K_POINTS {automatic}
 4 4 1 0 0 0
ATOMIC_SPECIES
 O0 15.9994 o_pbe_v1.01.uspp.F.UPF
 Cr1 51.996 cr_pbe_v1.uspp.F.UPF
 H2 1.00794 h_pbe_v1.uspp.F.UPF
ATOMIC_POSITIONS {crystal}
 O0 0.00000 0.00000 0.37225 0 0 1
 O0 0.00000 0.50000 0.39290 0 0 1
 Cr1 0.25000 0.50000 0.44619 0 0 1
 Cr1 0.00000 0.00000 0.44897 0 0 1
 O0 0.25000 0.80000 0.44753 0 0 1
 O0 0.25000 0.20000 0.44757 0 0 1
 O0 0.00000 0.50000 0.49613 0 0 1
 O0 0.00000 0.00000 0.52596 0 0 1
 Cr1 0.25000 0.00000 0.57827 0 0 1
 Cr1 0.00000 0.50000 0.56740 0 0 1
 O0 0.25000 0.70000 0.57845 0 0 1
 O0 0.25000 0.30000 0.57847 0 0 1
 O0 0.00000 0.00000 0.62788 0 0 1
 O0 0.50000 0.00000 0.37183 0 0 1
 O0 0.50000 0.50000 0.39317 0 0 1
 Cr1 0.75000 0.50000 0.44618 0 0 1
 Cr1 0.50000 0.00000 0.44831 0 0 1
 O0 0.75000 0.80000 0.44753 0 0 1
 O0 0.75000 0.20000 0.44755 0 0 1
 O0 0.50000 0.50000 0.49970 0 0 1
 O0 0.50000 0.00000 0.52585 0 0 1
 Cr1 0.75000 0.00000 0.57839 0 0 1
 Cr1 0.50000 0.50000 0.58135 0 0 1
 O0 0.75000 0.70000 0.57718 0 0 1
 O0 0.75000 0.30000 0.57712 0 0 1
 O0 0.50000 0.00000 0.62793 0 0 1
 H2 -0.00063 0.63637 0.37331 1 1 1
 H2 0.49933 0.63652 0.37365 1 1 1
 H2 0.15823 0.02860 0.35940 1 1 1
 H2 0.65874 0.02820 0.35924 1 1 1
 O0 0.52017 0.49906 0.65528 1 1 1
 H2 0.36784 0.49732 0.67179 1 1 1
CELL_PARAMETERS {angstrom}
 5.8 0.0 0.0
 0.0 6.19425540319 0.0
 0.0 0.0 26.1942554032
