&CONTROL
 calculation = 'relax'
 disk_io = 'none'
 pseudo_dir = '/home/camp/zhonxu/pseudo'
/
&SYSTEM
 ibrav = 0
 nat = 32
 ntyp = 3
 nbnd = 334
 starting_magnetization(1) = 0
 starting_magnetization(2) = 0
 starting_magnetization(3) = 0
 ecutwfc = 40
 ecutrho = 500
 occupations = 'smearing'
 degauss = 0.01
 smearing = 'mp'
 nspin = 1
 lda_plus_u = .True.
 Hubbard_U(1) = 0
 Hubbard_U(2) = 7.5
 Hubbard_U(3) = 0
 Hubbard_alpha(1) = 0
 Hubbard_alpha(2) = 0
 Hubbard_alpha(3) = 0
 U_projection_type = 'atomic'
/
&ELECTRONS
/
&IONS
/
&CELL
/
K_POINTS {automatic}
 4 4 1 0 0 0
ATOMIC_SPECIES
 O0 15.9994 o_pbe_v1.01.uspp.F.UPF
 Nb1 92.9064 nb_pbe_v1.uspp.F.UPF
 H2 1.00794 h_pbe_v1.uspp.F.UPF
ATOMIC_POSITIONS {crystal}
 O0 0.00000 0.00000 0.37211 0 0 1
 O0 0.00000 0.50000 0.38914 0 0 1
 Nb1 0.25000 0.50000 0.44467 0 0 1
 Nb1 0.00000 0.00000 0.44478 0 0 1
 O0 0.25000 0.79000 0.44715 0 0 1
 O0 0.25000 0.21000 0.44715 0 0 1
 O0 0.00000 0.50000 0.50021 0 0 1
 O0 0.00000 0.00000 0.52345 0 0 1
 Nb1 0.25000 0.00000 0.57742 0 0 1
 Nb1 0.00000 0.50000 0.56944 0 0 1
 O0 0.25000 0.71000 0.57590 0 0 1
 O0 0.25000 0.29000 0.57590 0 0 1
 O0 0.00000 0.00000 0.62212 0 0 1
 O0 0.50000 0.00000 0.37243 0 0 1
 O0 0.50000 0.50000 0.39076 0 0 1
 Nb1 0.75000 0.50000 0.44470 0 0 1
 Nb1 0.50000 0.00000 0.44534 0 0 1
 O0 0.75000 0.79000 0.44715 0 0 1
 O0 0.75000 0.21000 0.44716 0 0 1
 O0 0.50000 0.50000 0.49896 0 0 1
 O0 0.50000 0.00000 0.52347 0 0 1
 Nb1 0.75000 0.00000 0.57755 0 0 1
 Nb1 0.50000 0.50000 0.57756 0 0 1
 O0 0.75000 0.71000 0.57595 0 0 1
 O0 0.75000 0.29000 0.57596 0 0 1
 O0 0.50000 0.00000 0.62201 0 0 1
 H2 -0.00048 0.50183 0.35285 1 1 1
 H2 0.49953 0.50184 0.35454 1 1 1
 H2 0.15058 0.00051 0.35625 1 1 1
 H2 0.65054 0.00051 0.35657 1 1 1
 O0 0.50242 0.50000 0.64900 1 1 1
 H2 0.39768 0.50005 0.67686 1 1 1
CELL_PARAMETERS {angstrom}
 5.92 0.0 0.0
 0.0 6.98621499812 0.0
 0.0 0.0 26.9862149981
