&CONTROL
 calculation = 'relax'
 tstress = .True.
 tprnfor = .True.
 disk_io = 'none'
 pseudo_dir = '/home/camp/zhonxu/pseudo'
/
&SYSTEM
 ibrav = 0
 nat = 30
 ntyp = 3
 nbnd = 324
 tot_magnetization = 16
 starting_magnetization(1) = 0
 starting_magnetization(2) = 0.6
 starting_magnetization(3) = 0
 ecutwfc = 40
 ecutrho = 500
 occupations = 'smearing'
 degauss = 0.01
 smearing = 'mp'
 nspin = 2
 lda_plus_u = .True.
 Hubbard_U(1) = 0
 Hubbard_U(2) = 4
 Hubbard_U(3) = 0
 Hubbard_alpha(1) = 0
 Hubbard_alpha(2) = 0
 Hubbard_alpha(3) = 0
 U_projection_type = 'atomic'
/
&ELECTRONS
/
&IONS
/
&CELL
/
K_POINTS {automatic}
 4 4 1 0 0 0
ATOMIC_SPECIES
 O0 15.9994 o_pbe_v1.01.uspp.F.UPF
 Cr1 51.996 cr_pbe_v1.uspp.F.UPF
 H2 1.00794 h_pbe_v1.uspp.F.UPF
ATOMIC_POSITIONS {crystal}
 O0 0.00000 0.00000 0.37933 0 0 1
 O0 0.00000 0.50000 0.39611 0 0 1
 Cr1 0.25000 0.50000 0.44804 0 0 1
 Cr1 0.00000 0.00000 0.45225 0 0 1
 O0 0.25000 0.80000 0.45098 0 0 1
 O0 0.25000 0.20000 0.45100 0 0 1
 O0 0.00000 0.50000 0.49687 0 0 1
 O0 0.00000 0.00000 0.52647 0 0 1
 Cr1 0.25000 0.00000 0.57804 0 0 1
 Cr1 0.00000 0.50000 0.56650 0 0 1
 O0 0.25000 0.70000 0.57559 0 0 1
 O0 0.25000 0.30000 0.57571 0 0 1
 O0 0.00000 0.00000 0.62257 0 0 1
 O0 0.50000 0.00000 0.37934 0 0 1
 O0 0.50000 0.50000 0.39611 0 0 1
 Cr1 0.75000 0.50000 0.44807 0 0 1
 Cr1 0.50000 0.00000 0.45227 0 0 1
 O0 0.75000 0.80000 0.45097 0 0 1
 O0 0.75000 0.20000 0.45100 0 0 1
 O0 0.50000 0.50000 0.49687 0 0 1
 O0 0.50000 0.00000 0.52649 0 0 1
 Cr1 0.75000 0.00000 0.58160 0 0 1
 Cr1 0.50000 0.50000 0.56650 0 0 1
 O0 0.75000 0.70000 0.57583 0 0 1
 O0 0.75000 0.30000 0.57594 0 0 1
 O0 0.50000 0.00000 0.62254 0 0 1
 H2 -0.00073 0.63761 0.37676 1 1 1
 H2 0.49930 0.63761 0.37676 1 1 1
 H2 0.15816 0.02956 0.36677 1 1 1
 H2 0.65811 0.02957 0.36676 1 1 1
CELL_PARAMETERS {angstrom}
 5.8 0.0 0.0
 0.0 6.19425540319 0.0
 0.0 0.0 26.1942554032
