&CONTROL
 calculation = 'relax'
 tstress = .True.
 tprnfor = .True.
 disk_io = 'none'
 pseudo_dir = '/home/camp/zhonxu/pseudo'
/
&SYSTEM
 ibrav = 0
 nat = 33
 ntyp = 3
 nbnd = 367
 starting_magnetization(1) = 0
 starting_magnetization(2) = 0
 starting_magnetization(3) = 0
 ecutwfc = 40
 ecutrho = 500
 occupations = 'smearing'
 degauss = 0.01
 smearing = 'mp'
 nspin = 1
 lda_plus_u = .True.
 Hubbard_U(1) = 0
 Hubbard_U(2) = 2.5
 Hubbard_U(3) = 0
 Hubbard_alpha(1) = 0
 Hubbard_alpha(2) = 0
 Hubbard_alpha(3) = 0
 U_projection_type = 'atomic'
/
&ELECTRONS
/
&IONS
/
&CELL
/
K_POINTS {automatic}
 4 4 1 0 0 0
ATOMIC_SPECIES
 O0 15.9994 o_pbe_v1.01.uspp.F.UPF
 Rh1 102.9055 rh_pbe_v1.uspp.F.UPF
 H2 1.00794 h_pbe_v1.uspp.F.UPF
ATOMIC_POSITIONS {crystal}
 O0 0.00000 0.00000 0.37779 0 0 1
 O0 0.00000 0.50000 0.40137 0 0 1
 Rh1 0.25000 0.50000 0.45285 0 0 1
 Rh1 0.00000 0.00000 0.45237 0 0 1
 O0 0.25000 0.81000 0.45216 0 0 1
 O0 0.25000 0.19000 0.45202 0 0 1
 O0 0.00000 0.50000 0.49843 0 0 1
 O0 0.00000 0.00000 0.52785 0 0 1
 Rh1 0.25000 0.00000 0.57512 0 0 1
 Rh1 0.00000 0.50000 0.57057 0 0 1
 O0 0.25000 0.69000 0.57468 0 0 1
 O0 0.25000 0.31000 0.57710 0 0 1
 O0 0.00000 0.00000 0.62056 0 0 1
 O0 0.50000 0.00000 0.37785 0 0 1
 O0 0.50000 0.50000 0.40155 0 0 1
 Rh1 0.75000 0.50000 0.45284 0 0 1
 Rh1 0.50000 0.00000 0.45237 0 0 1
 O0 0.75000 0.81000 0.45213 0 0 1
 O0 0.75000 0.19000 0.45206 0 0 1
 O0 0.50000 0.50000 0.50011 0 0 1
 O0 0.50000 0.00000 0.52773 0 0 1
 Rh1 0.75000 0.00000 0.57512 0 0 1
 Rh1 0.50000 0.50000 0.57805 0 0 1
 O0 0.75000 0.69000 0.57467 0 0 1
 O0 0.75000 0.31000 0.57710 0 0 1
 O0 0.50000 0.00000 0.62002 0 0 1
 H2 0.00005 0.63874 0.38483 1 1 1
 H2 0.49992 0.63884 0.38499 1 1 1
 H2 0.14777 0.03596 0.36715 1 1 1
 H2 0.64844 0.03346 0.36717 1 1 1
 O0 0.49973 0.53712 0.65062 1 1 1
 O0 0.50033 0.34542 0.67846 1 1 1
 H2 0.49993 0.40216 0.71324 1 1 1
CELL_PARAMETERS {angstrom}
 6.22 0.0 0.0
 0.0 6.4346717088 0.0
 0.0 0.0 26.4346717088
