&CONTROL
 calculation = 'relax'
 tstress = .True.
 tprnfor = .True.
 disk_io = 'none'
 pseudo_dir = '/home/camp/zhonxu/pseudo'
/
&SYSTEM
 ibrav = 0
 nat = 31
 ntyp = 3
 nbnd = 345
 tot_magnetization = 22
 starting_magnetization(1) = 0
 starting_magnetization(2) = 0.6
 starting_magnetization(3) = 0
 ecutwfc = 40
 ecutrho = 500
 occupations = 'smearing'
 degauss = 0.01
 smearing = 'mp'
 nspin = 2
 lda_plus_u = .True.
 Hubbard_U(1) = 0
 Hubbard_U(2) = 7.5
 Hubbard_U(3) = 0
 Hubbard_alpha(1) = 0
 Hubbard_alpha(2) = 0
 Hubbard_alpha(3) = 0
 U_projection_type = 'atomic'
/
&ELECTRONS
/
&IONS
/
&CELL
/
K_POINTS {automatic}
 4 4 1 0 0 0
ATOMIC_SPECIES
 O0 15.9994 o_pbe_v1.01.uspp.F.UPF
 Mn1 54.938 mn_pbe_v1.uspp.F.UPF
 H2 1.00794 h_pbe_v1.uspp.F.UPF
ATOMIC_POSITIONS {crystal}
 O0 0.00000 0.00000 0.37077 0 0 1
 O0 0.00000 0.50000 0.39172 0 0 1
 Mn1 0.25000 0.50000 0.44596 0 0 1
 Mn1 0.00000 0.00000 0.44631 0 0 1
 O0 0.25000 0.80000 0.44432 0 0 1
 O0 0.25000 0.20000 0.44835 0 0 1
 O0 0.00000 0.50000 0.49496 0 0 1
 O0 0.00000 0.00000 0.52677 0 0 1
 Mn1 0.25000 0.00000 0.57683 0 0 1
 Mn1 0.00000 0.50000 0.57260 0 0 1
 O0 0.25000 0.70000 0.58659 0 0 1
 O0 0.25000 0.30000 0.58700 0 0 1
 O0 0.00000 0.00000 0.62708 0 0 1
 O0 0.50000 0.00000 0.37056 0 0 1
 O0 0.50000 0.50000 0.39193 0 0 1
 Mn1 0.75000 0.50000 0.44593 0 0 1
 Mn1 0.50000 0.00000 0.44598 0 0 1
 O0 0.75000 0.80000 0.44432 0 0 1
 O0 0.75000 0.20000 0.44846 0 0 1
 O0 0.50000 0.50000 0.49724 0 0 1
 O0 0.50000 0.00000 0.52678 0 0 1
 Mn1 0.75000 0.00000 0.57682 0 0 1
 Mn1 0.50000 0.50000 0.57426 0 0 1
 O0 0.75000 0.70000 0.58659 0 0 1
 O0 0.75000 0.30000 0.58701 0 0 1
 O0 0.50000 0.00000 0.62797 0 0 1
 H2 0.00064 0.64890 0.37658 1 1 1
 H2 0.50070 0.64765 0.37639 1 1 1
 H2 0.16073 0.04628 0.36044 1 1 1
 H2 0.66047 0.04685 0.36023 1 1 1
 O0 0.49986 0.50047 0.65041 1 1 1
CELL_PARAMETERS {angstrom}
 5.68 0.0 0.0
 0.0 6.16597113195 0.0
 0.0 0.0 26.1659711319
