&CONTROL
 calculation = 'relax'
 tprnfor = .True.
 outdir = '/scratch/1089129.gilgamesh.cheme.cmu.edu'
 disk_io = 'none'
 pseudo_dir = '/home-research/zhongnanxu/pseudopotentials/gbrv_espresso_pseudo_v1.01'
/
&SYSTEM
 ibrav = 0
 nat = 33
 ntyp = 3
 nbnd = 379
 starting_magnetization(1) = 0
 starting_magnetization(2) = 0
 starting_magnetization(3) = 0
 ecutwfc = 40
 ecutrho = 500
 occupations = 'smearing'
 degauss = 0.01
 smearing = 'mp'
 nspin = 1
 lda_plus_u = .True.
 Hubbard_U(1) = 0
 Hubbard_U(2) = 7
 Hubbard_U(3) = 0
 Hubbard_alpha(1) = 0
 Hubbard_alpha(2) = 0
 Hubbard_alpha(3) = 0
 U_projection_type = 'atomic'
/
&ELECTRONS
/
&IONS
/
&CELL
/
K_POINTS {automatic}
 4 4 1 0 0 0
ATOMIC_SPECIES
 O0 15.9994 o_pbe_v1.01.uspp.F.UPF
 Ru1 101.07 ru_pbe_v1.uspp.F.UPF
 H2 1.00794 h_pbe_v1.uspp.F.UPF
ATOMIC_POSITIONS {crystal}
 O0 0.00000 0.00000 0.37954 0 0 1
 O0 0.00000 0.50000 0.40438 0 0 1
 Ru1 0.25000 0.50000 0.45378 0 0 1
 Ru1 0.00000 0.00000 0.45268 0 0 1
 O0 0.25000 0.81000 0.45235 0 0 1
 O0 0.25000 0.19000 0.45219 0 0 1
 O0 0.00000 0.50000 0.50095 0 0 1
 O0 0.00000 0.00000 0.52568 0 0 1
 Ru1 0.25000 0.00000 0.58093 0 0 1
 Ru1 0.00000 0.50000 0.56977 0 0 1
 O0 0.25000 0.69000 0.57769 0 0 1
 O0 0.25000 0.31000 0.57994 0 0 1
 O0 0.00000 0.00000 0.61779 0 0 1
 O0 0.50000 0.00000 0.37858 0 0 1
 O0 0.50000 0.50000 0.40203 0 0 1
 Ru1 0.75000 0.50000 0.45368 0 0 1
 Ru1 0.50000 0.00000 0.45167 0 0 1
 O0 0.75000 0.81000 0.45228 0 0 1
 O0 0.75000 0.19000 0.45230 0 0 1
 O0 0.50000 0.50000 0.50095 0 0 1
 O0 0.50000 0.00000 0.52456 0 0 1
 Ru1 0.75000 0.00000 0.57198 0 0 1
 Ru1 0.50000 0.50000 0.57950 0 0 1
 O0 0.75000 0.69000 0.57288 0 0 1
 O0 0.75000 0.31000 0.57480 0 0 1
 O0 0.50000 0.00000 0.61598 0 0 1
 H2 -0.00007 0.61353 0.37922 1 1 1
 H2 0.49979 0.63226 0.38289 1 1 1
 H2 0.14722 0.02640 0.36724 1 1 1
 H2 0.64653 0.02805 0.36609 1 1 1
 O0 0.50007 0.52803 0.65071 0 1 1
 O0 0.49999 0.33573 0.67956 0 1 1
 H2 0.49996 0.39432 0.71407 0 1 1
CELL_PARAMETERS {angstrom}
 6.24 0.0 0.0
 0.0 6.40638743755 0.0
 0.0 0.0 26.4063874376
