&CONTROL
 calculation = 'relax'
 tstress = .True.
 tprnfor = .True.
 disk_io = 'none'
 pseudo_dir = '/home/camp/zhonxu/pseudo'
/
&SYSTEM
 ibrav = 0
 nat = 31
 ntyp = 3
 nbnd = 345
 tot_magnetization = 22
 starting_magnetization(1) = 0
 starting_magnetization(2) = 0.6
 starting_magnetization(3) = 0
 ecutwfc = 40
 ecutrho = 500
 occupations = 'smearing'
 degauss = 0.01
 smearing = 'mp'
 nspin = 2
 lda_plus_u = .True.
 Hubbard_U(1) = 0
 Hubbard_U(2) = 6.5
 Hubbard_U(3) = 0
 Hubbard_alpha(1) = 0
 Hubbard_alpha(2) = 0
 Hubbard_alpha(3) = 0
 U_projection_type = 'atomic'
/
&ELECTRONS
 mixing_beta = 0.3
/
&IONS
/
&CELL
/
K_POINTS {automatic}
 4 4 1 0 0 0
ATOMIC_SPECIES
 O0 15.9994 o_pbe_v1.01.uspp.F.UPF
 Mn1 54.938 mn_pbe_v1.uspp.F.UPF
 H2 1.00794 h_pbe_v1.uspp.F.UPF
ATOMIC_POSITIONS {crystal}
 O0 0.00000 0.00000 0.37253 0 0 1
 O0 0.00000 0.50000 0.39374 0 0 1
 Mn1 0.25000 0.50000 0.44726 0 0 1
 Mn1 0.00000 0.00000 0.44664 0 0 1
 O0 0.25000 0.80000 0.44504 0 0 1
 O0 0.25000 0.20000 0.44867 0 0 1
 O0 0.00000 0.50000 0.49538 0 0 1
 O0 0.00000 0.00000 0.52580 0 0 1
 Mn1 0.25000 0.00000 0.57539 0 0 1
 Mn1 0.00000 0.50000 0.57308 0 0 1
 O0 0.25000 0.70000 0.58445 0 0 1
 O0 0.25000 0.30000 0.58481 0 0 1
 O0 0.00000 0.00000 0.62449 0 0 1
 O0 0.50000 0.00000 0.37245 0 0 1
 O0 0.50000 0.50000 0.39377 0 0 1
 Mn1 0.75000 0.50000 0.44724 0 0 1
 Mn1 0.50000 0.00000 0.44646 0 0 1
 O0 0.75000 0.80000 0.44504 0 0 1
 O0 0.75000 0.20000 0.44868 0 0 1
 O0 0.50000 0.50000 0.49774 0 0 1
 O0 0.50000 0.00000 0.52588 0 0 1
 Mn1 0.75000 0.00000 0.57539 0 0 1
 Mn1 0.50000 0.50000 0.57416 0 0 1
 O0 0.75000 0.70000 0.58445 0 0 1
 O0 0.75000 0.30000 0.58480 0 0 1
 O0 0.50000 0.00000 0.62514 0 0 1
 H2 0.00057 0.64841 0.37828 1 1 1
 H2 0.50058 0.64729 0.37799 1 1 1
 H2 0.16069 0.04509 0.36196 1 1 1
 H2 0.66046 0.04533 0.36180 1 1 1
 O0 0.49987 0.50042 0.64866 1 1 1
CELL_PARAMETERS {angstrom}
 5.68 0.0 0.0
 0.0 6.16597113195 0.0
 0.0 0.0 26.1659711319
