&CONTROL
 calculation = 'relax'
 tstress = .True.
 tprnfor = .True.
 disk_io = 'none'
 pseudo_dir = '/home/camp/zhonxu/pseudo'
/
&SYSTEM
 ibrav = 0
 nat = 50
 ntyp = 3
 nbnd = 658
 starting_magnetization(1) = 0
 starting_magnetization(2) = 0
 starting_magnetization(3) = 0
 ecutwfc = 40
 ecutrho = 500
 occupations = 'smearing'
 degauss = 0.01
 smearing = 'mp'
 nspin = 1
 Hubbard_U(1) = 0
 Hubbard_U(2) = 0
 Hubbard_U(3) = 0
 Hubbard_alpha(1) = 0
 Hubbard_alpha(2) = 0
 Hubbard_alpha(3) = 0
/
&ELECTRONS
 mixing_beta = 0.3
/
&IONS
/
&CELL
/
K_POINTS {automatic}
 4 4 1 0 0 0
ATOMIC_SPECIES
 O0 15.9994 o_pbe_v1.01.uspp.F.UPF
 Ru1 101.07 ru_pbe_v1.uspp.F.UPF
 H2 1.00794 h_pbe_v1.uspp.F.UPF
ATOMIC_POSITIONS {crystal}
 O0 0.00000 0.50000 0.33293 0 0 0
 Ru1 0.25000 0.50000 0.36670 0 0 0
 Ru1 0.00000 0.00000 0.36670 0 0 0
 O0 0.25000 0.81000 0.36670 0 0 0
 O0 0.25000 0.19000 0.36670 0 0 0
 O0 0.00000 0.50000 0.40047 0 0 0
 O0 0.00000 0.00000 0.42180 0 0 0
 Ru1 0.25000 0.00000 0.45557 0 0 0
 Ru1 0.00000 0.50000 0.45557 0 0 0
 O0 0.25000 0.69000 0.45557 0 0 0
 O0 0.25000 0.31000 0.45557 0 0 0
 O0 0.00000 0.00000 0.48934 0 0 0
 O0 0.00033 0.50000 0.50949 1 1 1
 Ru1 0.25362 0.50000 0.54371 1 1 1
 Ru1 0.00023 0.00000 0.54406 1 1 1
 O0 0.25094 0.80630 0.54401 1 1 1
 O0 0.25094 0.19370 0.54401 1 1 1
 O0 0.00065 0.50000 0.57657 1 1 1
 O0 0.00029 0.00000 0.59835 1 1 1
 Ru1 0.24397 0.00000 0.63545 1 1 1
 Ru1 -0.00110 0.50000 0.62837 1 1 1
 O0 0.24570 0.68990 0.63369 1 1 1
 O0 0.24570 0.31010 0.63369 1 1 1
 O0 0.00027 0.00000 0.66862 1 1 1
 O0 0.50000 0.50000 0.33293 0 0 0
 Ru1 0.75000 0.50000 0.36670 0 0 0
 Ru1 0.50000 0.00000 0.36670 0 0 0
 O0 0.75000 0.81000 0.36670 0 0 0
 O0 0.75000 0.19000 0.36670 0 0 0
 O0 0.50000 0.50000 0.40047 0 0 0
 O0 0.50000 0.00000 0.42180 0 0 0
 Ru1 0.75000 0.00000 0.45557 0 0 0
 Ru1 0.50000 0.50000 0.45557 0 0 0
 O0 0.75000 0.69000 0.45557 0 0 0
 O0 0.75000 0.31000 0.45557 0 0 0
 O0 0.50000 0.00000 0.48934 0 0 0
 O0 0.50029 0.50000 0.50937 1 1 1
 Ru1 0.74695 0.50000 0.54372 1 1 1
 Ru1 0.50010 0.00000 0.54473 1 1 1
 O0 0.74941 0.80642 0.54406 1 1 1
 O0 0.74941 0.19358 0.54406 1 1 1
 O0 0.49997 0.50000 0.57946 1 1 1
 O0 0.49943 0.00000 0.59863 1 1 1
 Ru1 0.75575 0.00000 0.63532 1 1 1
 Ru1 0.49998 0.50000 0.63388 1 1 1
 O0 0.75401 0.69082 0.63318 1 1 1
 O0 0.75401 0.30918 0.63318 1 1 1
 O0 0.50007 0.00000 0.66319 1 1 1
 O0 0.51323 0.50000 0.68697 1 1 1
 H2 0.37051 0.50000 0.69857 1 1 1
CELL_PARAMETERS {angstrom}
 6.24 0.0 0.0
 0.0 6.40638743755 0.0
 0.0 0.0 36.0440083826
