&CONTROL
 calculation = 'relax'
 tprnfor = .True.
 disk_io = 'none'
 pseudo_dir = '/home/camp/zhonxu/pseudo'
/
&SYSTEM
 ibrav = 0
 nat = 51
 ntyp = 3
 nbnd = 619
 starting_magnetization(1) = 0
 starting_magnetization(2) = 0
 starting_magnetization(3) = 0
 ecutwfc = 40
 ecutrho = 500
 occupations = 'smearing'
 degauss = 0.01
 smearing = 'mp'
 nspin = 1
 Hubbard_U(1) = 0
 Hubbard_U(2) = 0
 Hubbard_U(3) = 0
 Hubbard_alpha(1) = 0
 Hubbard_alpha(2) = 0
 Hubbard_alpha(3) = 0
/
&ELECTRONS
 mixing_beta = 0.3
/
&IONS
/
&CELL
/
K_POINTS {automatic}
 4 4 1 0 0 0
ATOMIC_SPECIES
 O0 15.9994 o_pbe_v1.01.uspp.F.UPF
 Nb1 92.9064 nb_pbe_v1.uspp.F.UPF
 H2 1.00794 h_pbe_v1.uspp.F.UPF
ATOMIC_POSITIONS {crystal}
 O0 0.00000 0.50000 0.32074 0 0 0
 Nb1 0.25000 0.50000 0.35995 0 0 0
 Nb1 0.00000 0.00000 0.35995 0 0 0
 O0 0.25000 0.79000 0.35995 0 0 0
 O0 0.25000 0.21000 0.35995 0 0 0
 O0 0.00000 0.50000 0.39917 0 0 0
 O0 0.00000 0.00000 0.41410 0 0 0
 Nb1 0.25000 0.00000 0.45332 0 0 0
 Nb1 0.00000 0.50000 0.45332 0 0 0
 O0 0.25000 0.71000 0.45332 0 0 0
 O0 0.25000 0.29000 0.45332 0 0 0
 O0 0.00000 0.00000 0.49253 0 0 0
 O0 0.00000 0.49913 0.50756 1 1 1
 Nb1 0.27501 0.49752 0.54617 1 1 1
 Nb1 0.00000 -0.00252 0.54663 1 1 1
 O0 0.24722 0.79002 0.54758 1 1 1
 O0 0.24446 0.20674 0.54770 1 1 1
 O0 0.00000 0.50228 0.58358 1 1 1
 O0 0.00000 -0.00124 0.60287 1 1 1
 Nb1 0.24945 0.00131 0.64199 1 1 1
 Nb1 0.00000 0.49994 0.63319 1 1 1
 O0 0.24146 0.70549 0.64147 1 1 1
 O0 0.24124 0.29558 0.64113 1 1 1
 O0 0.00000 0.00081 0.67402 1 1 1
 O0 0.50000 0.50000 0.32074 0 0 0
 Nb1 0.75000 0.50000 0.35995 0 0 0
 Nb1 0.50000 0.00000 0.35995 0 0 0
 O0 0.75000 0.79000 0.35995 0 0 0
 O0 0.75000 0.21000 0.35995 0 0 0
 O0 0.50000 0.50000 0.39917 0 0 0
 O0 0.50000 0.00000 0.41410 0 0 0
 Nb1 0.75000 0.00000 0.45332 0 0 0
 Nb1 0.50000 0.50000 0.45332 0 0 0
 O0 0.75000 0.71000 0.45332 0 0 0
 O0 0.75000 0.29000 0.45332 0 0 0
 O0 0.50000 0.00000 0.49253 0 0 0
 O0 0.50000 0.49984 0.50532 1 1 1
 Nb1 0.72499 0.49752 0.54617 1 1 1
 Nb1 0.50000 -0.00080 0.54690 1 1 1
 O0 0.75278 0.79002 0.54758 1 1 1
 O0 0.75554 0.20674 0.54770 1 1 1
 O0 0.50000 0.49614 0.58857 1 1 1
 O0 0.50000 -0.00010 0.60248 1 1 1
 Nb1 0.75055 0.00131 0.64199 1 1 1
 Nb1 0.50000 0.50265 0.64297 1 1 1
 O0 0.75854 0.70549 0.64147 1 1 1
 O0 0.75876 0.29558 0.64113 1 1 1
 O0 0.50000 -0.00261 0.67371 1 1 1
 O0 0.50000 0.49241 0.69495 1 1 1
 O0 0.50000 0.33642 0.72055 1 1 1
 H2 0.50000 0.41138 0.74286 1 1 1
CELL_PARAMETERS {angstrom}
 5.92 0.0 0.0
 0.0 6.98621499812 0.0
 0.0 0.0 37.4135327964
