&CONTROL
 calculation = 'relax'
 disk_io = 'none'
 pseudo_dir = '/home/camp/zhonxu/pseudo'
/
&SYSTEM
 ibrav = 0
 nat = 50
 ntyp = 3
 nbnd = 634
 starting_magnetization(1) = 0
 starting_magnetization(2) = 0
 starting_magnetization(3) = 0
 ecutwfc = 40
 ecutrho = 500
 occupations = 'smearing'
 degauss = 0.01
 smearing = 'mp'
 nspin = 1
 Hubbard_U(1) = 0
 Hubbard_U(2) = 0
 Hubbard_U(3) = 0
 Hubbard_alpha(1) = 0
 Hubbard_alpha(2) = 0
 Hubbard_alpha(3) = 0
/
&ELECTRONS
 mixing_beta = 0.3
/
&IONS
/
&CELL
/
K_POINTS {automatic}
 4 4 1 0 0 0
ATOMIC_SPECIES
 O0 15.9994 o_pbe_v1.01.uspp.F.UPF
 Mo1 95.94 mo_pbe_v1.uspp.F.UPF
 H2 1.00794 h_pbe_v1.uspp.F.UPF
ATOMIC_POSITIONS {crystal}
 O0 0.00000 0.50000 0.31931 0 0 0
 Mo1 0.25000 0.50000 0.36029 0 0 0
 Mo1 0.00000 0.00000 0.36029 0 0 0
 O0 0.25000 0.78000 0.36029 0 0 0
 O0 0.25000 0.22000 0.36029 0 0 0
 O0 0.00000 0.50000 0.40127 0 0 0
 O0 0.00000 0.00000 0.41245 0 0 0
 Mo1 0.25000 0.00000 0.45343 0 0 0
 Mo1 0.00000 0.50000 0.45343 0 0 0
 O0 0.25000 0.72000 0.45343 0 0 0
 O0 0.25000 0.28000 0.45343 0 0 0
 O0 0.00000 0.00000 0.49441 0 0 0
 O0 0.00000 0.50000 0.50423 0 0 0
 Mo1 0.22866 0.50000 0.54466 0 0 0
 Mo1 0.00000 0.00000 0.55012 0 0 0
 O0 0.24602 0.78328 0.54749 0 0 0
 O0 0.24602 0.21672 0.54749 0 0 0
 O0 0.00000 0.50000 0.58697 0 0 0
 O0 0.00000 0.00000 0.60295 0 0 0
 Mo1 0.27194 0.00000 0.64435 0 0 0
 Mo1 0.00000 0.50000 0.63579 0 0 0
 O0 0.25687 0.70477 0.64405 0 0 0
 O0 0.25687 0.29523 0.64405 0 0 0
 O0 0.00000 0.00000 0.67765 0 0 0
 O0 0.50000 0.50000 0.31931 0 0 0
 Mo1 0.75000 0.50000 0.36029 0 0 0
 Mo1 0.50000 0.00000 0.36029 0 0 0
 O0 0.75000 0.78000 0.36029 0 0 0
 O0 0.75000 0.22000 0.36029 0 0 0
 O0 0.50000 0.50000 0.40127 0 0 0
 O0 0.50000 0.00000 0.41245 0 0 0
 Mo1 0.75000 0.00000 0.45343 0 0 0
 Mo1 0.50000 0.50000 0.45343 0 0 0
 O0 0.75000 0.72000 0.45343 0 0 0
 O0 0.75000 0.28000 0.45343 0 0 0
 O0 0.50000 0.00000 0.49441 0 0 0
 O0 0.50000 0.50000 0.50745 0 0 0
 Mo1 0.77134 0.50000 0.54466 0 0 0
 Mo1 0.50000 0.00000 0.54802 0 0 0
 O0 0.75398 0.78328 0.54749 0 0 0
 O0 0.75398 0.21672 0.54749 0 0 0
 O0 0.50000 0.50000 0.58383 0 0 0
 O0 0.50000 0.00000 0.60064 0 0 0
 Mo1 0.72806 0.00000 0.64435 0 0 0
 Mo1 0.50000 0.50000 0.63273 0 0 0
 O0 0.74313 0.70477 0.64405 0 0 0
 O0 0.74313 0.29523 0.64405 0 0 0
 O0 0.50000 0.00000 0.68363 0 0 0
 O0 0.50000 0.50000 0.68470 1 1 1
 H2 0.34432 0.50000 0.69401 1 1 1
CELL_PARAMETERS {angstrom}
 5.46 0.0 0.0
 0.0 7.00035713375 0.0
 0.0 0.0 37.5806928395
