&CONTROL
 calculation = 'relax'
 tstress = .True.
 tprnfor = .True.
 disk_io = 'none'
 pseudo_dir = '/home/camp/zhonxu/pseudo'
/
&SYSTEM
 ibrav = 0
 nat = 50
 ntyp = 3
 nbnd = 634
 starting_magnetization(1) = 0
 starting_magnetization(2) = 0
 starting_magnetization(3) = 0
 ecutwfc = 40
 ecutrho = 500
 occupations = 'smearing'
 degauss = 0.01
 smearing = 'mp'
 nspin = 1
 Hubbard_U(1) = 0
 Hubbard_U(2) = 0
 Hubbard_U(3) = 0
 Hubbard_alpha(1) = 0
 Hubbard_alpha(2) = 0
 Hubbard_alpha(3) = 0
/
&ELECTRONS
 mixing_beta = 0.3
/
&IONS
/
&CELL
/
K_POINTS {automatic}
 4 4 1 0 0 0
ATOMIC_SPECIES
 O0 15.9994 o_pbe_v1.01.uspp.F.UPF
 Mo1 95.94 mo_pbe_v1.uspp.F.UPF
 H2 1.00794 h_pbe_v1.uspp.F.UPF
ATOMIC_POSITIONS {crystal}
 O0 0.00000 0.50000 0.31931 0 0 0
 Mo1 0.25000 0.50000 0.36029 0 0 0
 Mo1 0.00000 0.00000 0.36029 0 0 0
 O0 0.25000 0.78000 0.36029 0 0 0
 O0 0.25000 0.22000 0.36029 0 0 0
 O0 0.00000 0.50000 0.40127 0 0 0
 O0 0.00000 0.00000 0.41245 0 0 0
 Mo1 0.25000 0.00000 0.45343 0 0 0
 Mo1 0.00000 0.50000 0.45343 0 0 0
 O0 0.25000 0.72000 0.45343 0 0 0
 O0 0.25000 0.28000 0.45343 0 0 0
 O0 0.00000 0.00000 0.49441 0 0 0
 O0 0.00420 0.50000 0.50486 1 1 1
 Mo1 0.23370 0.50000 0.54632 1 1 1
 Mo1 -0.01946 0.00000 0.54810 1 1 1
 O0 0.24322 0.79125 0.54699 1 1 1
 O0 0.24322 0.20875 0.54699 1 1 1
 O0 -0.00302 0.50000 0.58742 1 1 1
 O0 -0.00547 0.00000 0.60095 1 1 1
 Mo1 0.26015 0.00000 0.64092 1 1 1
 Mo1 -0.02641 0.50000 0.63614 1 1 1
 O0 0.24903 0.70139 0.64028 1 1 1
 O0 0.24903 0.29861 0.64028 1 1 1
 O0 -0.00395 0.00000 0.67475 1 1 1
 O0 0.50000 0.50000 0.31931 0 0 0
 Mo1 0.75000 0.50000 0.36029 0 0 0
 Mo1 0.50000 0.00000 0.36029 0 0 0
 O0 0.75000 0.78000 0.36029 0 0 0
 O0 0.75000 0.22000 0.36029 0 0 0
 O0 0.50000 0.50000 0.40127 0 0 0
 O0 0.50000 0.00000 0.41245 0 0 0
 Mo1 0.75000 0.00000 0.45343 0 0 0
 Mo1 0.50000 0.50000 0.45343 0 0 0
 O0 0.75000 0.72000 0.45343 0 0 0
 O0 0.75000 0.28000 0.45343 0 0 0
 O0 0.50000 0.00000 0.49441 0 0 0
 O0 0.49926 0.50000 0.50772 1 1 1
 Mo1 0.77140 0.50000 0.54565 1 1 1
 Mo1 0.51863 0.00000 0.54693 1 1 1
 O0 0.75040 0.77845 0.54672 1 1 1
 O0 0.75040 0.22155 0.54672 1 1 1
 O0 0.50130 0.50000 0.58401 1 1 1
 O0 0.49400 0.00000 0.59892 1 1 1
 Mo1 0.72168 0.00000 0.64159 1 1 1
 Mo1 0.52236 0.50000 0.63968 1 1 1
 O0 0.74992 0.72322 0.63798 1 1 1
 O0 0.74992 0.27678 0.63798 1 1 1
 O0 0.48800 0.00000 0.68017 1 1 1
 O0 0.54960 0.50000 0.69055 1 1 1
 H2 0.40879 0.50000 0.70675 1 1 1
CELL_PARAMETERS {angstrom}
 5.46 0.0 0.0
 0.0 7.00035713375 0.0
 0.0 0.0 37.5806928395
