&CONTROL
 calculation = 'relax'
 disk_io = 'none'
 pseudo_dir = '/home/camp/zhonxu/pseudo'
/
&SYSTEM
 ibrav = 0
 nat = 31
 ntyp = 3
 nbnd = 333
 tot_magnetization = 14
 starting_magnetization(1) = 0
 starting_magnetization(2) = 0.6
 starting_magnetization(3) = 0
 ecutwfc = 40
 ecutrho = 500
 occupations = 'smearing'
 degauss = 0.01
 smearing = 'mp'
 nspin = 2
 lda_plus_u = .True.
 Hubbard_U(1) = 0
 Hubbard_U(2) = 7
 Hubbard_U(3) = 0
 Hubbard_alpha(1) = 0
 Hubbard_alpha(2) = 0
 Hubbard_alpha(3) = 0
 U_projection_type = 'atomic'
/
&ELECTRONS
/
&IONS
/
&CELL
/
K_POINTS {automatic}
 4 4 1 0 0 0
ATOMIC_SPECIES
 O0 15.9994 o_pbe_v1.01.uspp.F.UPF
 Cr1 51.996 cr_pbe_v1.uspp.F.UPF
 H2 1.00794 h_pbe_v1.uspp.F.UPF
ATOMIC_POSITIONS {crystal}
 O0 0.00000 0.00000 0.37709 0 0 1
 O0 0.00000 0.50000 0.39919 0 0 1
 Cr1 0.25000 0.50000 0.45060 0 0 1
 Cr1 0.00000 0.00000 0.44779 0 0 1
 O0 0.25000 0.80000 0.44922 0 0 1
 O0 0.25000 0.20000 0.44932 0 0 1
 O0 0.00000 0.50000 0.49700 0 0 1
 O0 0.00000 0.00000 0.52319 0 0 1
 Cr1 0.25000 0.00000 0.56640 0 0 1
 Cr1 0.00000 0.50000 0.56431 0 0 1
 O0 0.25000 0.70000 0.57468 0 0 1
 O0 0.25000 0.30000 0.57462 0 0 1
 O0 0.00000 0.00000 0.61753 0 0 1
 O0 0.50000 0.00000 0.37764 0 0 1
 O0 0.50000 0.50000 0.39884 0 0 1
 Cr1 0.75000 0.50000 0.45080 0 0 1
 Cr1 0.50000 0.00000 0.44873 0 0 1
 O0 0.75000 0.80000 0.44923 0 0 1
 O0 0.75000 0.20000 0.44940 0 0 1
 O0 0.50000 0.50000 0.49519 0 0 1
 O0 0.50000 0.00000 0.52289 0 0 1
 Cr1 0.75000 0.00000 0.58318 0 0 1
 Cr1 0.50000 0.50000 0.58855 0 0 1
 O0 0.75000 0.70000 0.57553 0 0 1
 O0 0.75000 0.30000 0.57550 0 0 1
 O0 0.50000 0.00000 0.61708 0 0 1
 H2 -0.00080 0.63532 0.37910 1 1 1
 H2 0.49979 0.63819 0.37976 1 1 1
 H2 0.15667 0.03206 0.36396 1 1 1
 H2 0.65530 0.03334 0.36410 1 1 1
 O0 0.49893 0.49960 0.64841 1 1 1
CELL_PARAMETERS {angstrom}
 5.8 0.0 0.0
 0.0 6.19425540319 0.0
 0.0 0.0 26.1942554032
