&CONTROL
 calculation = 'relax'
 tstress = .True.
 tprnfor = .True.
 disk_io = 'none'
 pseudo_dir = '/home/camp/zhonxu/pseudo'
/
&SYSTEM
 ibrav = 0
 nat = 33
 ntyp = 3
 nbnd = 343
 starting_magnetization(1) = 0
 starting_magnetization(2) = 0
 starting_magnetization(3) = 0
 ecutwfc = 40
 ecutrho = 500
 occupations = 'smearing'
 degauss = 0.01
 smearing = 'mp'
 nspin = 1
 lda_plus_u = .True.
 Hubbard_U(1) = 0
 Hubbard_U(2) = 8
 Hubbard_U(3) = 0
 Hubbard_alpha(1) = 0
 Hubbard_alpha(2) = 0
 Hubbard_alpha(3) = 0
 U_projection_type = 'atomic'
/
&ELECTRONS
/
&IONS
/
&CELL
/
K_POINTS {automatic}
 4 4 1 0 0 0
ATOMIC_SPECIES
 O0 15.9994 o_pbe_v1.01.uspp.F.UPF
 Nb1 92.9064 nb_pbe_v1.uspp.F.UPF
 H2 1.00794 h_pbe_v1.uspp.F.UPF
ATOMIC_POSITIONS {crystal}
 O0 0.00000 0.00000 0.37210 0 0 1
 O0 0.00000 0.50000 0.38881 0 0 1
 Nb1 0.25000 0.50000 0.44440 0 0 1
 Nb1 0.00000 0.00000 0.44476 0 0 1
 O0 0.25000 0.79000 0.44715 0 0 1
 O0 0.25000 0.21000 0.44712 0 0 1
 O0 0.00000 0.50000 0.49995 0 0 1
 O0 0.00000 0.00000 0.52327 0 0 1
 Nb1 0.25000 0.00000 0.57735 0 0 1
 Nb1 0.00000 0.50000 0.56942 0 0 1
 O0 0.25000 0.71000 0.57546 0 0 1
 O0 0.25000 0.29000 0.57596 0 0 1
 O0 0.00000 0.00000 0.62179 0 0 1
 O0 0.50000 0.00000 0.37237 0 0 1
 O0 0.50000 0.50000 0.39024 0 0 1
 Nb1 0.75000 0.50000 0.44444 0 0 1
 Nb1 0.50000 0.00000 0.44528 0 0 1
 O0 0.75000 0.79000 0.44714 0 0 1
 O0 0.75000 0.21000 0.44712 0 0 1
 O0 0.50000 0.50000 0.49879 0 0 1
 O0 0.50000 0.00000 0.52310 0 0 1
 Nb1 0.75000 0.00000 0.57735 0 0 1
 Nb1 0.50000 0.50000 0.57627 0 0 1
 O0 0.75000 0.71000 0.57545 0 0 1
 O0 0.75000 0.29000 0.57595 0 0 1
 O0 0.50000 0.00000 0.62153 0 0 1
 H2 -0.00052 0.50491 0.35255 1 1 1
 H2 0.49944 0.50118 0.35403 1 1 1
 H2 0.15077 0.00070 0.35633 1 1 1
 H2 0.65039 0.00051 0.35646 1 1 1
 O0 0.50000 0.50933 0.64906 1 1 1
 O0 0.50000 0.34769 0.68346 1 1 1
 H2 0.50000 0.41996 0.71480 1 1 1
CELL_PARAMETERS {angstrom}
 5.92 0.0 0.0
 0.0 6.98621499812 0.0
 0.0 0.0 26.9862149981
