&CONTROL
 calculation = 'relax'
 tstress = .True.
 tprnfor = .True.
 disk_io = 'none'
 pseudo_dir = '/home/camp/zhonxu/pseudo'
/
&SYSTEM
 ibrav = 0
 nat = 33
 ntyp = 3
 nbnd = 343
 tot_magnetization = 15
 starting_magnetization(1) = 0
 starting_magnetization(2) = 0.6
 starting_magnetization(3) = 0
 ecutwfc = 40
 ecutrho = 500
 occupations = 'smearing'
 degauss = 0.01
 smearing = 'mp'
 nspin = 2
 Hubbard_U(1) = 0
 Hubbard_U(2) = 0
 Hubbard_U(3) = 0
 Hubbard_alpha(1) = 0
 Hubbard_alpha(2) = 0
 Hubbard_alpha(3) = 0
/
&ELECTRONS
 mixing_beta = 0.3
/
&IONS
/
&CELL
/
K_POINTS {automatic}
 4 4 1 0 0 0
ATOMIC_SPECIES
 O0 15.9994 o_pbe_v1.01.uspp.F.UPF
 Cr1 51.996 cr_pbe_v1.uspp.F.UPF
 H2 1.00794 h_pbe_v1.uspp.F.UPF
ATOMIC_POSITIONS {crystal}
 O0 0.00000 0.00000 0.37864 0 0 1
 O0 0.00000 0.50000 0.39985 0 0 1
 Cr1 0.25000 0.50000 0.45144 0 0 1
 Cr1 0.00000 0.00000 0.44958 0 0 1
 O0 0.25000 0.80000 0.45033 0 0 1
 O0 0.25000 0.20000 0.45046 0 0 1
 O0 0.00000 0.50000 0.49766 0 0 1
 O0 0.00000 0.00000 0.52289 0 0 1
 Cr1 0.25000 0.00000 0.56734 0 0 1
 Cr1 0.00000 0.50000 0.56483 0 0 1
 O0 0.25000 0.70000 0.57240 0 0 1
 O0 0.25000 0.30000 0.57444 0 0 1
 O0 0.00000 0.00000 0.61665 0 0 1
 O0 0.50000 0.00000 0.37877 0 0 1
 O0 0.50000 0.50000 0.40007 0 0 1
 Cr1 0.75000 0.50000 0.45154 0 0 1
 Cr1 0.50000 0.00000 0.44987 0 0 1
 O0 0.75000 0.80000 0.45025 0 0 1
 O0 0.75000 0.20000 0.45053 0 0 1
 O0 0.50000 0.50000 0.49867 0 0 1
 O0 0.50000 0.00000 0.52334 0 0 1
 Cr1 0.75000 0.00000 0.58144 0 0 1
 Cr1 0.50000 0.50000 0.57730 0 0 1
 O0 0.75000 0.70000 0.57327 0 0 1
 O0 0.75000 0.30000 0.57533 0 0 1
 O0 0.50000 0.00000 0.61574 0 0 1
 H2 -0.00047 0.64210 0.38221 1 1 1
 H2 0.49984 0.64268 0.38271 1 1 1
 H2 0.15501 0.03053 0.36454 1 1 1
 H2 0.65425 0.03146 0.36452 1 1 1
 O0 0.49986 0.53798 0.64739 0 1 1
 O0 0.50022 0.35800 0.68185 0 1 1
 H2 0.49989 0.43552 0.71494 0 1 1
CELL_PARAMETERS {angstrom}
 5.8 0.0 0.0
 0.0 6.19425540319 0.0
 0.0 0.0 26.1942554032
