&CONTROL
 calculation = 'vc-relax'
 tprnfor = .True.
 outdir = '/scratch/1093971.gilgamesh.cheme.cmu.edu'
 disk_io = 'none'
 pseudo_dir = '/home/camp/zhonxu/pseudo'
/
&SYSTEM
 ibrav = 0
 nat = 6
 ntyp = 2
 nbnd = 81
 starting_magnetization(1) = 0.6
 starting_magnetization(2) = 0
 ecutwfc = 40
 ecutrho = 500
 occupations = 'smearing'
 degauss = 0.01
 smearing = 'mp'
 nspin = 2
 Hubbard_U(1) = 0
 Hubbard_U(2) = 0
 Hubbard_alpha(1) = 0
 Hubbard_alpha(2) = 0
/
&ELECTRONS
 conv_thr = 7e-06
 mixing_beta = 0.3
/
&IONS
/
&CELL
 cell_dofree = 'shape'
/
K_POINTS {automatic}
 5 5 5 0 0 0
ATOMIC_SPECIES
 Re0 186.207 re_pbe_v1.2.uspp.F.UPF
 O1 15.9994 o_pbe_v1.2.uspp.F.UPF
ATOMIC_POSITIONS {crystal}
 Re0 0.00000 0.00000 0.00000 0 0 0
 Re0 0.50000 0.50000 0.50000 0 0 0
 O1 0.29965 0.29965 0.00000 1 1 0
 O1 -0.29965 -0.29965 0.00000 1 1 0
 O1 0.79965 0.20035 0.50000 1 1 0
 O1 0.20035 0.79965 0.50000 1 1 0
CELL_PARAMETERS {angstrom}
 4.69494751672 -6.61396710487e-05 0.0
 -6.61396710487e-05 4.69494751672 0.0
 0.0 0.0 3.07804317054
