&CONTROL
 calculation = 'relax'
 tstress = .True.
 tprnfor = .True.
 disk_io = 'none'
 pseudo_dir = '/home/camp/zhonxu/pseudo'
/
&SYSTEM
 ibrav = 0
 nat = 30
 ntyp = 3
 nbnd = 336
 starting_magnetization(1) = 0
 starting_magnetization(2) = 0
 starting_magnetization(3) = 0
 ecutwfc = 40
 ecutrho = 500
 occupations = 'smearing'
 degauss = 0.01
 smearing = 'mp'
 nspin = 1
 lda_plus_u = .True.
 Hubbard_U(1) = 0
 Hubbard_U(2) = 7
 Hubbard_U(3) = 0
 Hubbard_alpha(1) = 0
 Hubbard_alpha(2) = 0
 Hubbard_alpha(3) = 0
 U_projection_type = 'atomic'
/
&ELECTRONS
/
&IONS
/
&CELL
/
K_POINTS {automatic}
 4 4 1 0 0 0
ATOMIC_SPECIES
 O0 15.9994 o_pbe_v1.01.uspp.F.UPF
 Mo1 95.94 mo_pbe_v1.uspp.F.UPF
 H2 1.00794 h_pbe_v1.uspp.F.UPF
ATOMIC_POSITIONS {crystal}
 O0 0.00000 0.00000 0.37358 0 0 1
 O0 0.00000 0.50000 0.38027 0 0 1
 Mo1 0.25000 0.50000 0.43876 0 0 1
 Mo1 0.00000 0.00000 0.44544 0 0 1
 O0 0.25000 0.78000 0.44307 0 0 1
 O0 0.25000 0.22000 0.44292 0 0 1
 O0 0.00000 0.50000 0.49524 0 0 1
 O0 0.00000 0.00000 0.51774 0 0 1
 Mo1 0.25000 0.00000 0.57455 0 0 1
 Mo1 0.00000 0.50000 0.56719 0 0 1
 O0 0.25000 0.72000 0.57498 0 0 1
 O0 0.25000 0.28000 0.57512 0 0 1
 O0 0.00000 0.00000 0.62752 0 0 1
 O0 0.50000 0.00000 0.36938 0 0 1
 O0 0.50000 0.50000 0.38063 0 0 1
 Mo1 0.75000 0.50000 0.43886 0 0 1
 Mo1 0.50000 0.00000 0.44233 0 0 1
 O0 0.75000 0.78000 0.44259 0 0 1
 O0 0.75000 0.22000 0.44276 0 0 1
 O0 0.50000 0.50000 0.49876 0 0 1
 O0 0.50000 0.00000 0.52033 0 0 1
 Mo1 0.75000 0.00000 0.57993 0 0 1
 Mo1 0.50000 0.50000 0.56504 0 0 1
 O0 0.75000 0.72000 0.57528 0 0 1
 O0 0.75000 0.28000 0.57542 0 0 1
 O0 0.50000 0.00000 0.62817 0 0 1
 H2 -0.00078 0.62081 0.36130 1 1 1
 H2 0.50008 0.61236 0.35860 1 1 1
 H2 0.16577 0.02289 0.35877 1 1 1
 H2 0.66961 0.02100 0.35656 1 1 1
CELL_PARAMETERS {angstrom}
 5.46 0.0 0.0
 0.0 7.00035713375 0.0
 0.0 0.0 27.0003571337
