&CONTROL
 calculation = 'relax'
 tstress = .True.
 tprnfor = .True.
 disk_io = 'none'
 pseudo_dir = '/home/camp/zhonxu/pseudo'
/
&SYSTEM
 ibrav = 0
 nat = 49
 ntyp = 2
 nbnd = 657
 starting_magnetization(1) = 0
 starting_magnetization(2) = 0
 ecutwfc = 40
 ecutrho = 500
 occupations = 'smearing'
 degauss = 0.01
 smearing = 'mp'
 nspin = 1
 Hubbard_U(1) = 0
 Hubbard_U(2) = 0
 Hubbard_alpha(1) = 0
 Hubbard_alpha(2) = 0
/
&ELECTRONS
 mixing_beta = 0.3
/
&IONS
/
&CELL
/
K_POINTS {automatic}
 4 4 1 0 0 0
ATOMIC_SPECIES
 O0 15.9994 o_pbe_v1.01.uspp.F.UPF
 Re1 186.207 re_pbe_v1.uspp.F.UPF
ATOMIC_POSITIONS {crystal}
 O0 0.00000 0.50000 0.31931 0 0 0
 Re1 0.25000 0.50000 0.36029 0 0 0
 Re1 0.00000 0.00000 0.36029 0 0 0
 O0 0.25000 0.78000 0.36029 0 0 0
 O0 0.25000 0.22000 0.36029 0 0 0
 O0 0.00000 0.50000 0.40127 0 0 0
 O0 0.00000 0.00000 0.41245 0 0 0
 Re1 0.25000 0.00000 0.45343 0 0 0
 Re1 0.00000 0.50000 0.45343 0 0 0
 O0 0.25000 0.72000 0.45343 0 0 0
 O0 0.25000 0.28000 0.45343 0 0 0
 O0 0.00000 0.00000 0.49441 0 0 0
 O0 0.00000 0.50000 0.50736 1 1 1
 Re1 0.26633 0.50000 0.54664 1 1 1
 Re1 0.00000 0.00000 0.54762 1 1 1
 O0 0.25141 0.78117 0.54685 1 1 1
 O0 0.25141 0.21883 0.54685 1 1 1
 O0 0.00000 0.50000 0.58473 1 1 1
 O0 0.00000 0.00000 0.60141 1 1 1
 Re1 0.27467 0.00000 0.64039 1 1 1
 Re1 0.00000 0.50000 0.63569 1 1 1
 O0 0.25081 0.71594 0.63896 1 1 1
 O0 0.25081 0.28406 0.63896 1 1 1
 O0 0.00000 0.00000 0.67383 1 1 1
 O0 0.50000 0.50000 0.31931 0 0 0
 Re1 0.75000 0.50000 0.36029 0 0 0
 Re1 0.50000 0.00000 0.36029 0 0 0
 O0 0.75000 0.78000 0.36029 0 0 0
 O0 0.75000 0.22000 0.36029 0 0 0
 O0 0.50000 0.50000 0.40127 0 0 0
 O0 0.50000 0.00000 0.41245 0 0 0
 Re1 0.75000 0.00000 0.45343 0 0 0
 Re1 0.50000 0.50000 0.45343 0 0 0
 O0 0.75000 0.72000 0.45343 0 0 0
 O0 0.75000 0.28000 0.45343 0 0 0
 O0 0.50000 0.00000 0.49441 0 0 0
 O0 0.50000 0.50000 0.50497 1 1 1
 Re1 0.73367 0.50000 0.54664 1 1 1
 Re1 0.50000 0.00000 0.54622 1 1 1
 O0 0.74859 0.78117 0.54685 1 1 1
 O0 0.74859 0.21883 0.54685 1 1 1
 O0 0.50000 0.50000 0.58888 1 1 1
 O0 0.50000 0.00000 0.59765 1 1 1
 Re1 0.72533 0.00000 0.64039 1 1 1
 Re1 0.50000 0.50000 0.64373 1 1 1
 O0 0.74919 0.71594 0.63896 1 1 1
 O0 0.74919 0.28406 0.63896 1 1 1
 O0 0.50000 0.00000 0.68081 1 1 1
 O0 0.50000 0.50000 0.68947 1 1 1
CELL_PARAMETERS {angstrom}
 5.36 0.0 0.0
 0.0 7.00035713375 0.0
 0.0 0.0 37.5806928395
