&CONTROL
 calculation = 'relax'
 tstress = .True.
 tprnfor = .True.
 disk_io = 'none'
 pseudo_dir = '/home/camp/zhonxu/pseudo'
/
&SYSTEM
 ibrav = 0
 nat = 51
 ntyp = 3
 nbnd = 667
 starting_magnetization(1) = 0
 starting_magnetization(2) = 0
 starting_magnetization(3) = 0
 ecutwfc = 40
 ecutrho = 500
 occupations = 'smearing'
 degauss = 0.01
 smearing = 'mp'
 nspin = 1
 Hubbard_U(1) = 0
 Hubbard_U(2) = 0
 Hubbard_U(3) = 0
 Hubbard_alpha(1) = 0
 Hubbard_alpha(2) = 0
 Hubbard_alpha(3) = 0
/
&ELECTRONS
 mixing_beta = 0.3
/
&IONS
/
&CELL
/
K_POINTS {automatic}
 4 4 1 0 0 0
ATOMIC_SPECIES
 O0 15.9994 o_pbe_v1.01.uspp.F.UPF
 Ru1 101.07 ru_pbe_v1.uspp.F.UPF
 H2 1.00794 h_pbe_v1.uspp.F.UPF
ATOMIC_POSITIONS {crystal}
 O0 0.00000 0.50000 0.33293 0 0 0
 Ru1 0.25000 0.50000 0.36670 0 0 0
 Ru1 0.00000 0.00000 0.36670 0 0 0
 O0 0.25000 0.81000 0.36670 0 0 0
 O0 0.25000 0.19000 0.36670 0 0 0
 O0 0.00000 0.50000 0.40047 0 0 0
 O0 0.00000 0.00000 0.42180 0 0 0
 Ru1 0.25000 0.00000 0.45557 0 0 0
 Ru1 0.00000 0.50000 0.45557 0 0 0
 O0 0.25000 0.69000 0.45557 0 0 0
 O0 0.25000 0.31000 0.45557 0 0 0
 O0 0.00000 0.00000 0.48934 0 0 0
 O0 0.00000 0.50000 0.50945 0 0 0
 Ru1 0.25000 0.50000 0.54372 0 0 0
 Ru1 0.00000 0.00000 0.54460 0 0 0
 O0 0.25000 0.80647 0.54422 0 0 0
 O0 0.25000 0.19353 0.54422 0 0 0
 O0 0.00000 0.50000 0.57800 0 0 0
 O0 0.00000 0.00000 0.59867 0 0 0
 Ru1 0.25000 0.00000 0.63567 0 0 0
 Ru1 0.00000 0.50000 0.63022 0 0 0
 O0 0.25000 0.68966 0.63466 0 0 0
 O0 0.25000 0.31034 0.63466 0 0 0
 O0 0.00000 0.00000 0.66594 0 0 0
 O0 0.50000 0.50000 0.33293 0 0 0
 Ru1 0.75000 0.50000 0.36670 0 0 0
 Ru1 0.50000 0.00000 0.36670 0 0 0
 O0 0.75000 0.81000 0.36670 0 0 0
 O0 0.75000 0.19000 0.36670 0 0 0
 O0 0.50000 0.50000 0.40047 0 0 0
 O0 0.50000 0.00000 0.42180 0 0 0
 Ru1 0.75000 0.00000 0.45557 0 0 0
 Ru1 0.50000 0.50000 0.45557 0 0 0
 O0 0.75000 0.69000 0.45557 0 0 0
 O0 0.75000 0.31000 0.45557 0 0 0
 O0 0.50000 0.00000 0.48934 0 0 0
 O0 0.50000 0.50000 0.50945 0 0 0
 Ru1 0.75000 0.50000 0.54372 0 0 0
 Ru1 0.50000 0.00000 0.54460 0 0 0
 O0 0.75000 0.80647 0.54422 0 0 0
 O0 0.75000 0.19353 0.54422 0 0 0
 O0 0.50000 0.50000 0.57800 0 0 0
 O0 0.50000 0.00000 0.59867 0 0 0
 Ru1 0.75000 0.00000 0.63567 0 0 0
 Ru1 0.50000 0.50000 0.63022 0 0 0
 O0 0.75000 0.68966 0.63466 0 0 0
 O0 0.75000 0.31034 0.63466 0 0 0
 O0 0.50000 0.00000 0.66594 0 0 0
 O0 0.50000 0.50000 0.68549 1 0 1
 O0 0.50000 0.31815 0.70646 1 0 1
 H2 0.50000 0.36437 0.73253 1 0 1
CELL_PARAMETERS {angstrom}
 6.24 0.0 0.0
 0.0 6.40638743755 0.0
 0.0 0.0 36.0440083826
