&CONTROL
 outdir = 'alpha_0.07/'
 pseudo_dir = '/home/camp/zhonxu/pseudo'
/
&SYSTEM
 ibrav = 0
 nat = 48
 ntyp = 3
 nbnd = 624
 starting_magnetization(1) = 0
 starting_magnetization(2) = 0
 starting_magnetization(3) = 0
 ecutwfc = 40
 ecutrho = 500
 occupations = 'smearing'
 degauss = 0.01
 smearing = 'mp'
 nspin = 2
 lda_plus_u = .True.
 Hubbard_U(1) = 1e-20
 Hubbard_U(2) = 1e-20
 Hubbard_U(3) = 1e-20
 Hubbard_alpha(1) = 0
 Hubbard_alpha(2) = 0.07
 Hubbard_alpha(3) = 0
 U_projection_type = 'atomic'
/
&ELECTRONS
 startingwfc = 'file'
 startingpot = 'file'
 diago_thr_init = 6.58e-09
/
&IONS
/
&CELL
/
K_POINTS {automatic}
 4 4 4 0 0 0
ATOMIC_SPECIES
 Mo0 95.94 mo_pbe_v1.uspp.F.UPF
 O1 15.9994 o_pbe_v1.01.uspp.F.UPF
 O2 15.9994 o_pbe_v1.01.uspp.F.UPF
ATOMIC_POSITIONS {crystal}
 Mo0 -0.14000 -0.14000 0.00000
 Mo0 0.11000 0.11000 0.25000
 Mo0 -0.14000 -0.14000 0.50000
 Mo0 0.11000 0.11000 0.75000
 Mo0 -0.14000 0.36000 0.00000
 Mo0 0.11000 0.61000 0.25000
 Mo0 -0.14000 0.36000 0.50000
 Mo0 0.11000 0.61000 0.75000
 Mo0 0.36000 -0.14000 0.00000
 Mo0 0.61000 0.11000 0.25000
 Mo0 0.36000 -0.14000 0.50000
 Mo0 0.61000 0.11000 0.75000
 Mo0 0.36000 0.36000 0.00000
 Mo0 0.61000 0.61000 0.25000
 Mo0 0.36000 0.36000 0.50000
 Mo0 0.61000 0.61000 0.75000
 O1 0.00000 0.00000 0.00000
 O2 -0.28000 -0.28000 0.00000
 O2 0.25000 -0.03000 0.25000
 O2 -0.03000 0.25000 0.25000
 O2 0.00000 0.00000 0.50000
 O2 -0.28000 -0.28000 0.50000
 O2 0.25000 -0.03000 0.75000
 O2 -0.03000 0.25000 0.75000
 O2 0.00000 0.50000 0.00000
 O2 -0.28000 0.22000 0.00000
 O2 0.25000 0.47000 0.25000
 O2 -0.03000 0.75000 0.25000
 O2 0.00000 0.50000 0.50000
 O2 -0.28000 0.22000 0.50000
 O2 0.25000 0.47000 0.75000
 O2 -0.03000 0.75000 0.75000
 O2 0.50000 0.00000 0.00000
 O2 0.22000 -0.28000 0.00000
 O2 0.75000 -0.03000 0.25000
 O2 0.47000 0.25000 0.25000
 O2 0.50000 0.00000 0.50000
 O2 0.22000 -0.28000 0.50000
 O2 0.75000 -0.03000 0.75000
 O2 0.47000 0.25000 0.75000
 O2 0.50000 0.50000 0.00000
 O2 0.22000 0.22000 0.00000
 O2 0.75000 0.47000 0.25000
 O2 0.47000 0.75000 0.25000
 O2 0.50000 0.50000 0.50000
 O2 0.22000 0.22000 0.50000
 O2 0.75000 0.47000 0.75000
 O2 0.47000 0.75000 0.75000
CELL_PARAMETERS {angstrom}
 9.9 0.0 0.0
 0.0 9.9 0.0
 0.0 0.0 5.46
