&CONTROL
 calculation = 'relax'
 disk_io = 'none'
 pseudo_dir = '/home/camp/zhonxu/pseudo'
/
&SYSTEM
 ibrav = 0
 nat = 32
 ntyp = 3
 nbnd = 334
 tot_magnetization = 15
 starting_magnetization(1) = 0
 starting_magnetization(2) = 0.6
 starting_magnetization(3) = 0
 ecutwfc = 40
 ecutrho = 500
 occupations = 'smearing'
 degauss = 0.01
 smearing = 'mp'
 nspin = 2
 Hubbard_U(1) = 0
 Hubbard_U(2) = 0
 Hubbard_U(3) = 0
 Hubbard_alpha(1) = 0
 Hubbard_alpha(2) = 0
 Hubbard_alpha(3) = 0
/
&ELECTRONS
/
&IONS
/
&CELL
/
K_POINTS {automatic}
 4 4 1 0 0 0
ATOMIC_SPECIES
 O0 15.9994 o_pbe_v1.01.uspp.F.UPF
 Cr1 51.996 cr_pbe_v1.uspp.F.UPF
 H2 1.00794 h_pbe_v1.uspp.F.UPF
ATOMIC_POSITIONS {crystal}
 O0 0.00000 0.00000 0.37803 0 0 1
 O0 0.00000 0.50000 0.40008 0 0 1
 Cr1 0.25000 0.50000 0.45141 0 0 1
 Cr1 0.00000 0.00000 0.44895 0 0 1
 O0 0.25000 0.80000 0.44993 0 0 1
 O0 0.25000 0.20000 0.45009 0 0 1
 O0 0.00000 0.50000 0.49739 0 0 1
 O0 0.00000 0.00000 0.52321 0 0 1
 Cr1 0.25000 0.00000 0.56633 0 0 1
 Cr1 0.00000 0.50000 0.56481 0 0 1
 O0 0.25000 0.70000 0.57362 0 0 1
 O0 0.25000 0.30000 0.57362 0 0 1
 O0 0.00000 0.00000 0.61805 0 0 1
 O0 0.50000 0.00000 0.37805 0 0 1
 O0 0.50000 0.50000 0.40032 0 0 1
 Cr1 0.75000 0.50000 0.45153 0 0 1
 Cr1 0.50000 0.00000 0.44901 0 0 1
 O0 0.75000 0.80000 0.44998 0 0 1
 O0 0.75000 0.20000 0.45015 0 0 1
 O0 0.50000 0.50000 0.49920 0 0 1
 O0 0.50000 0.00000 0.52322 0 0 1
 Cr1 0.75000 0.00000 0.58365 0 0 1
 Cr1 0.50000 0.50000 0.57608 0 0 1
 O0 0.75000 0.70000 0.57437 0 0 1
 O0 0.75000 0.30000 0.57431 0 0 1
 O0 0.50000 0.00000 0.61735 0 0 1
 H2 -0.00060 0.63799 0.38096 1 1 1
 H2 0.49966 0.63807 0.38118 1 1 1
 H2 0.15662 0.03166 0.36489 1 1 1
 H2 0.65671 0.03139 0.36495 1 1 1
 O0 0.51445 0.49968 0.64530 1 1 1
 H2 0.36456 0.49809 0.66274 1 1 1
CELL_PARAMETERS {angstrom}
 5.8 0.0 0.0
 0.0 6.19425540319 0.0
 0.0 0.0 26.1942554032
