&CONTROL
 calculation = 'relax'
 tstress = .True.
 tprnfor = .True.
 disk_io = 'none'
 pseudo_dir = '/home/camp/zhonxu/pseudo'
/
&SYSTEM
 ibrav = 0
 nat = 33
 ntyp = 3
 nbnd = 379
 starting_magnetization(1) = 0
 starting_magnetization(2) = 0
 starting_magnetization(3) = 0
 ecutwfc = 40
 ecutrho = 500
 occupations = 'smearing'
 degauss = 0.01
 smearing = 'mp'
 nspin = 1
 lda_plus_u = .True.
 Hubbard_U(1) = 0
 Hubbard_U(2) = 1
 Hubbard_U(3) = 0
 Hubbard_alpha(1) = 0
 Hubbard_alpha(2) = 0
 Hubbard_alpha(3) = 0
 U_projection_type = 'atomic'
/
&ELECTRONS
/
&IONS
/
&CELL
/
K_POINTS {automatic}
 4 4 1 0 0 0
ATOMIC_SPECIES
 O0 15.9994 o_pbe_v1.01.uspp.F.UPF
 Pt1 195.08 pt_pbe_v1.uspp.F.UPF
 H2 1.00794 h_pbe_v1.uspp.F.UPF
ATOMIC_POSITIONS {crystal}
 O0 0.00000 0.00000 0.37783 0 0 1
 O0 0.00000 0.50000 0.40175 0 0 1
 Pt1 0.25000 0.50000 0.45125 0 0 1
 Pt1 0.00000 0.00000 0.45285 0 0 1
 O0 0.25000 0.81000 0.44350 0 0 1
 O0 0.25000 0.19000 0.46001 0 0 1
 O0 0.00000 0.50000 0.49673 0 0 1
 O0 0.00000 0.00000 0.52966 0 0 1
 Pt1 0.25000 0.00000 0.57585 0 0 1
 Pt1 0.00000 0.50000 0.57546 0 0 1
 O0 0.25000 0.69000 0.56742 0 0 1
 O0 0.25000 0.31000 0.58607 0 0 1
 O0 0.00000 0.00000 0.62141 0 0 1
 O0 0.50000 0.00000 0.37761 0 0 1
 O0 0.50000 0.50000 0.40077 0 0 1
 Pt1 0.75000 0.50000 0.45125 0 0 1
 Pt1 0.50000 0.00000 0.45262 0 0 1
 O0 0.75000 0.81000 0.44352 0 0 1
 O0 0.75000 0.19000 0.45999 0 0 1
 O0 0.50000 0.50000 0.49815 0 0 1
 O0 0.50000 0.00000 0.52938 0 0 1
 Pt1 0.75000 0.00000 0.57585 0 0 1
 Pt1 0.50000 0.50000 0.57620 0 0 1
 O0 0.75000 0.69000 0.56740 0 0 1
 O0 0.75000 0.31000 0.58608 0 0 1
 O0 0.50000 0.00000 0.62086 0 0 1
 H2 0.00002 0.63988 0.38603 1 1 1
 H2 0.50006 0.64049 0.38545 1 1 1
 H2 0.14337 0.03377 0.36779 1 1 1
 H2 0.64308 0.03529 0.36765 1 1 1
 O0 0.50011 0.55623 0.64873 1 1 1
 O0 0.49994 0.36696 0.67774 1 1 1
 H2 0.49999 0.42843 0.71187 1 1 1
CELL_PARAMETERS {angstrom}
 6.46 0.0 0.0
 0.0 6.49124025129 0.0
 0.0 0.0 26.4912402513
