&CONTROL
 calculation = 'relax'
 tstress = .True.
 tprnfor = .True.
 disk_io = 'none'
 pseudo_dir = '/home/camp/zhonxu/pseudo'
/
&SYSTEM
 ibrav = 0
 nat = 33
 ntyp = 3
 nbnd = 367
 starting_magnetization(1) = 0
 starting_magnetization(2) = 0
 starting_magnetization(3) = 0
 ecutwfc = 40
 ecutrho = 500
 occupations = 'smearing'
 degauss = 0.01
 smearing = 'mp'
 nspin = 1
 lda_plus_u = .True.
 Hubbard_U(1) = 0
 Hubbard_U(2) = 8
 Hubbard_U(3) = 0
 Hubbard_alpha(1) = 0
 Hubbard_alpha(2) = 0
 Hubbard_alpha(3) = 0
 U_projection_type = 'atomic'
/
&ELECTRONS
/
&IONS
/
&CELL
/
K_POINTS {automatic}
 4 4 1 0 0 0
ATOMIC_SPECIES
 O0 15.9994 o_pbe_v1.01.uspp.F.UPF
 Re1 186.207 re_pbe_v1.uspp.F.UPF
 H2 1.00794 h_pbe_v1.uspp.F.UPF
ATOMIC_POSITIONS {crystal}
 O0 0.00000 0.00000 0.37404 0 0 1
 O0 0.00000 0.50000 0.38621 0 0 1
 Re1 0.25000 0.50000 0.44538 0 0 1
 Re1 0.00000 0.00000 0.44577 0 0 1
 O0 0.25000 0.78000 0.44380 0 0 1
 O0 0.25000 0.22000 0.44394 0 0 1
 O0 0.00000 0.50000 0.50061 0 0 1
 O0 0.00000 0.00000 0.51592 0 0 1
 Re1 0.25000 0.00000 0.57441 0 0 1
 Re1 0.00000 0.50000 0.57500 0 0 1
 O0 0.25000 0.72000 0.57319 0 0 1
 O0 0.25000 0.28000 0.57015 0 0 1
 O0 0.00000 0.00000 0.62804 0 0 1
 O0 0.50000 0.00000 0.37453 0 0 1
 O0 0.50000 0.50000 0.38674 0 0 1
 Re1 0.75000 0.50000 0.44554 0 0 1
 Re1 0.50000 0.00000 0.44599 0 0 1
 O0 0.75000 0.78000 0.44378 0 0 1
 O0 0.75000 0.22000 0.44387 0 0 1
 O0 0.50000 0.50000 0.50246 0 0 1
 O0 0.50000 0.00000 0.51586 0 0 1
 Re1 0.75000 0.00000 0.57870 0 0 1
 Re1 0.50000 0.50000 0.57746 0 0 1
 O0 0.75000 0.72000 0.57270 0 0 1
 O0 0.75000 0.28000 0.57100 0 0 1
 O0 0.50000 0.00000 0.62827 0 0 1
 H2 -0.00103 0.62261 0.36823 1 1 1
 H2 0.49918 0.61705 0.36674 1 1 1
 H2 0.16764 0.02094 0.35859 1 1 1
 H2 0.66726 0.02087 0.35901 1 1 1
 O0 0.50618 0.49314 0.64047 1 1 1
 O0 1.01567 0.47114 0.64452 1 1 1
 H2 0.86689 0.42917 0.66380 1 1 1
CELL_PARAMETERS {angstrom}
 5.36 0.0 0.0
 0.0 7.00035713375 0.0
 0.0 0.0 27.0003571337
