&CONTROL
 calculation = 'relax'
 disk_io = 'none'
 pseudo_dir = '/home/camp/zhonxu/pseudo'
/
&SYSTEM
 ibrav = 0
 nat = 31
 ntyp = 3
 nbnd = 345
 tot_magnetization = 22
 starting_magnetization(1) = 0
 starting_magnetization(2) = 0.6
 starting_magnetization(3) = 0
 ecutwfc = 40
 ecutrho = 500
 occupations = 'smearing'
 degauss = 0.01
 smearing = 'mp'
 nspin = 2
 lda_plus_u = .True.
 Hubbard_U(1) = 0
 Hubbard_U(2) = 1.5
 Hubbard_U(3) = 0
 Hubbard_alpha(1) = 0
 Hubbard_alpha(2) = 0
 Hubbard_alpha(3) = 0
 U_projection_type = 'atomic'
/
&ELECTRONS
/
&IONS
/
&CELL
/
K_POINTS {automatic}
 4 4 1 0 0 0
ATOMIC_SPECIES
 O0 15.9994 o_pbe_v1.01.uspp.F.UPF
 Mn1 54.938 mn_pbe_v1.uspp.F.UPF
 H2 1.00794 h_pbe_v1.uspp.F.UPF
ATOMIC_POSITIONS {crystal}
 O0 0.00000 0.00000 0.37771 0 0 1
 O0 0.00000 0.50000 0.39804 0 0 1
 Mn1 0.25000 0.50000 0.44942 0 0 1
 Mn1 0.00000 0.00000 0.44858 0 0 1
 O0 0.25000 0.80000 0.44881 0 0 1
 O0 0.25000 0.20000 0.44965 0 0 1
 O0 0.00000 0.50000 0.49609 0 0 1
 O0 0.00000 0.00000 0.52382 0 0 1
 Mn1 0.25000 0.00000 0.57318 0 0 1
 Mn1 0.00000 0.50000 0.56658 0 0 1
 O0 0.25000 0.70000 0.57634 0 0 1
 O0 0.25000 0.30000 0.57641 0 0 1
 O0 0.00000 0.00000 0.61699 0 0 1
 O0 0.50000 0.00000 0.37810 0 0 1
 O0 0.50000 0.50000 0.39778 0 0 1
 Mn1 0.75000 0.50000 0.44942 0 0 1
 Mn1 0.50000 0.00000 0.44912 0 0 1
 O0 0.75000 0.80000 0.44877 0 0 1
 O0 0.75000 0.20000 0.44970 0 0 1
 O0 0.50000 0.50000 0.49429 0 0 1
 O0 0.50000 0.00000 0.52389 0 0 1
 Mn1 0.75000 0.00000 0.57319 0 0 1
 Mn1 0.50000 0.50000 0.58813 0 0 1
 O0 0.75000 0.70000 0.57633 0 0 1
 O0 0.75000 0.30000 0.57639 0 0 1
 O0 0.50000 0.00000 0.61694 0 0 1
 H2 0.00003 0.64530 0.38128 1 1 1
 H2 0.50004 0.64626 0.38137 1 1 1
 H2 0.16105 0.03755 0.36584 1 1 1
 H2 0.66093 0.03764 0.36618 1 1 1
 O0 0.50007 0.50040 0.64882 1 1 1
CELL_PARAMETERS {angstrom}
 5.68 0.0 0.0
 0.0 6.16597113195 0.0
 0.0 0.0 26.1659711319
