&CONTROL
 calculation = 'relax'
 tstress = .True.
 tprnfor = .True.
 disk_io = 'none'
 pseudo_dir = '/home/camp/zhonxu/pseudo'
/
&SYSTEM
 ibrav = 0
 nat = 31
 ntyp = 3
 nbnd = 357
 starting_magnetization(1) = 0
 starting_magnetization(2) = 0
 starting_magnetization(3) = 0
 ecutwfc = 40
 ecutrho = 500
 occupations = 'smearing'
 degauss = 0.01
 smearing = 'mp'
 nspin = 1
 lda_plus_u = .True.
 Hubbard_U(1) = 0
 Hubbard_U(2) = 7.5
 Hubbard_U(3) = 0
 Hubbard_alpha(1) = 0
 Hubbard_alpha(2) = 0
 Hubbard_alpha(3) = 0
 U_projection_type = 'atomic'
/
&ELECTRONS
/
&IONS
/
&CELL
/
K_POINTS {automatic}
 4 4 1 0 0 0
ATOMIC_SPECIES
 O0 15.9994 o_pbe_v1.01.uspp.F.UPF
 Re1 186.207 re_pbe_v1.uspp.F.UPF
 H2 1.00794 h_pbe_v1.uspp.F.UPF
ATOMIC_POSITIONS {crystal}
 O0 0.00000 0.00000 0.37197 0 0 1
 O0 0.00000 0.50000 0.38375 0 0 1
 Re1 0.25000 0.50000 0.44193 0 0 1
 Re1 0.00000 0.00000 0.44382 0 0 1
 O0 0.25000 0.78000 0.44216 0 0 1
 O0 0.25000 0.22000 0.44226 0 0 1
 O0 0.00000 0.50000 0.49726 0 0 1
 O0 0.00000 0.00000 0.51439 0 0 1
 Re1 0.25000 0.00000 0.57256 0 0 1
 Re1 0.00000 0.50000 0.56602 0 0 1
 O0 0.25000 0.72000 0.57011 0 0 1
 O0 0.25000 0.28000 0.57009 0 0 1
 O0 0.00000 0.00000 0.62645 0 0 1
 O0 0.50000 0.00000 0.37174 0 0 1
 O0 0.50000 0.50000 0.38286 0 0 1
 Re1 0.75000 0.50000 0.44190 0 0 1
 Re1 0.50000 0.00000 0.44355 0 0 1
 O0 0.75000 0.78000 0.44206 0 0 1
 O0 0.75000 0.22000 0.44217 0 0 1
 O0 0.50000 0.50000 0.49917 0 0 1
 O0 0.50000 0.00000 0.51443 0 0 1
 Re1 0.75000 0.00000 0.57672 0 0 1
 Re1 0.50000 0.50000 0.57560 0 0 1
 O0 0.75000 0.72000 0.57058 0 0 1
 O0 0.75000 0.28000 0.57056 0 0 1
 O0 0.50000 0.00000 0.62662 0 0 1
 H2 -0.00064 0.61953 0.36449 1 1 1
 H2 0.49969 0.62333 0.36525 1 1 1
 H2 0.17069 0.01776 0.35762 1 1 1
 H2 0.67031 0.01862 0.35734 1 1 1
 O0 0.49931 0.49933 0.63840 1 1 1
CELL_PARAMETERS {angstrom}
 5.36 0.0 0.0
 0.0 7.00035713375 0.0
 0.0 0.0 27.0003571337
