&CONTROL
 calculation = 'relax'
 tprnfor = .True.
 disk_io = 'none'
 pseudo_dir = '/home/camp/zhonxu/pseudo'
/
&SYSTEM
 ibrav = 0
 nat = 51
 ntyp = 3
 nbnd = 667
 starting_magnetization(1) = 0
 starting_magnetization(2) = 0
 starting_magnetization(3) = 0
 ecutwfc = 40
 ecutrho = 500
 occupations = 'smearing'
 degauss = 0.01
 smearing = 'mp'
 nspin = 1
 Hubbard_U(1) = 0
 Hubbard_U(2) = 0
 Hubbard_U(3) = 0
 Hubbard_alpha(1) = 0
 Hubbard_alpha(2) = 0
 Hubbard_alpha(3) = 0
/
&ELECTRONS
 mixing_beta = 0.3
/
&IONS
/
&CELL
/
K_POINTS {automatic}
 4 4 1 0 0 0
ATOMIC_SPECIES
 O0 15.9994 o_pbe_v1.01.uspp.F.UPF
 Ru1 101.07 ru_pbe_v1.uspp.F.UPF
 H2 1.00794 h_pbe_v1.uspp.F.UPF
ATOMIC_POSITIONS {crystal}
 O0 0.00000 0.50000 0.33293 0 0 0
 Ru1 0.25000 0.50000 0.36670 0 0 0
 Ru1 0.00000 0.00000 0.36670 0 0 0
 O0 0.25000 0.81000 0.36670 0 0 0
 O0 0.25000 0.19000 0.36670 0 0 0
 O0 0.00000 0.50000 0.40047 0 0 0
 O0 0.00000 0.00000 0.42180 0 0 0
 Ru1 0.25000 0.00000 0.45557 0 0 0
 Ru1 0.00000 0.50000 0.45557 0 0 0
 O0 0.25000 0.69000 0.45557 0 0 0
 O0 0.25000 0.31000 0.45557 0 0 0
 O0 0.00000 0.00000 0.48934 0 0 0
 O0 0.00000 0.49998 0.50991 1 1 1
 Ru1 0.25364 0.49877 0.54407 1 1 1
 Ru1 0.00000 -0.00063 0.54375 1 1 1
 O0 0.25064 0.80548 0.54401 1 1 1
 O0 0.25094 0.19290 0.54368 1 1 1
 O0 0.00000 0.49564 0.57716 1 1 1
 O0 0.00000 0.00066 0.59797 1 1 1
 Ru1 0.24438 -0.00346 0.63493 1 1 1
 Ru1 0.00000 0.49742 0.62890 1 1 1
 O0 0.24578 0.68830 0.63306 1 1 1
 O0 0.24750 0.30689 0.63512 1 1 1
 O0 0.00000 -0.00524 0.66798 1 1 1
 O0 0.50000 0.50000 0.33293 0 0 0
 Ru1 0.75000 0.50000 0.36670 0 0 0
 Ru1 0.50000 0.00000 0.36670 0 0 0
 O0 0.75000 0.81000 0.36670 0 0 0
 O0 0.75000 0.19000 0.36670 0 0 0
 O0 0.50000 0.50000 0.40047 0 0 0
 O0 0.50000 0.00000 0.42180 0 0 0
 Ru1 0.75000 0.00000 0.45557 0 0 0
 Ru1 0.50000 0.50000 0.45557 0 0 0
 O0 0.75000 0.69000 0.45557 0 0 0
 O0 0.75000 0.31000 0.45557 0 0 0
 O0 0.50000 0.00000 0.48934 0 0 0
 O0 0.50000 0.50029 0.50960 1 1 1
 Ru1 0.74636 0.49877 0.54407 1 1 1
 Ru1 0.50000 -0.00069 0.54445 1 1 1
 O0 0.74936 0.80548 0.54401 1 1 1
 O0 0.74906 0.19290 0.54368 1 1 1
 O0 0.50000 0.49679 0.57962 1 1 1
 O0 0.50000 0.00029 0.59817 1 1 1
 Ru1 0.75562 -0.00346 0.63493 1 1 1
 Ru1 0.50000 0.49713 0.63539 1 1 1
 O0 0.75422 0.68830 0.63306 1 1 1
 O0 0.75250 0.30689 0.63512 1 1 1
 O0 0.50000 -0.00865 0.66252 1 1 1
 O0 0.50000 0.52356 0.68826 1 1 1
 O0 0.50000 0.32696 0.70855 1 1 1
 H2 0.50000 0.38233 0.73411 1 1 1
CELL_PARAMETERS {angstrom}
 6.24 0.0 0.0
 0.0 6.40638743755 0.0
 0.0 0.0 36.0440083826
