&CONTROL
 calculation = 'relax'
 tprnfor = .True.
 disk_io = 'none'
 pseudo_dir = '/home-research/zhongnanxu/pseudopotentials/gbrv_espresso_pseudo_v1.01'
/
&SYSTEM
 ibrav = 0
 nat = 33
 ntyp = 3
 nbnd = 379
 starting_magnetization(1) = 0
 starting_magnetization(2) = 0
 starting_magnetization(3) = 0
 ecutwfc = 40
 ecutrho = 500
 occupations = 'smearing'
 degauss = 0.01
 smearing = 'mp'
 nspin = 1
 lda_plus_u = .True.
 Hubbard_U(1) = 0
 Hubbard_U(2) = 5
 Hubbard_U(3) = 0
 Hubbard_alpha(1) = 0
 Hubbard_alpha(2) = 0
 Hubbard_alpha(3) = 0
 U_projection_type = 'atomic'
/
&ELECTRONS
/
&IONS
/
&CELL
/
K_POINTS {automatic}
 4 4 1 0 0 0
ATOMIC_SPECIES
 O0 15.9994 o_pbe_v1.01.uspp.F.UPF
 Ru1 101.07 ru_pbe_v1.uspp.F.UPF
 H2 1.00794 h_pbe_v1.uspp.F.UPF
ATOMIC_POSITIONS {crystal}
 O0 0.00000 0.00000 0.38008 0 0 1
 O0 0.00000 0.50000 0.40470 0 0 1
 Ru1 0.25000 0.50000 0.45365 0 0 1
 Ru1 0.00000 0.00000 0.45352 0 0 1
 O0 0.25000 0.81000 0.45315 0 0 1
 O0 0.25000 0.19000 0.45299 0 0 1
 O0 0.00000 0.50000 0.50013 0 0 1
 O0 0.00000 0.00000 0.52622 0 0 1
 Ru1 0.25000 0.00000 0.57526 0 0 1
 Ru1 0.00000 0.50000 0.56933 0 0 1
 O0 0.25000 0.69000 0.57401 0 0 1
 O0 0.25000 0.31000 0.57638 0 0 1
 O0 0.00000 0.00000 0.61851 0 0 1
 O0 0.50000 0.00000 0.37974 0 0 1
 O0 0.50000 0.50000 0.40253 0 0 1
 Ru1 0.75000 0.50000 0.45369 0 0 1
 Ru1 0.50000 0.00000 0.45328 0 0 1
 O0 0.75000 0.81000 0.45303 0 0 1
 O0 0.75000 0.19000 0.45304 0 0 1
 O0 0.50000 0.50000 0.50065 0 0 1
 O0 0.50000 0.00000 0.52610 0 0 1
 Ru1 0.75000 0.00000 0.57857 0 0 1
 Ru1 0.50000 0.50000 0.57740 0 0 1
 O0 0.75000 0.69000 0.57516 0 0 1
 O0 0.75000 0.31000 0.57746 0 0 1
 O0 0.50000 0.00000 0.61614 0 0 1
 H2 -0.00083 0.60327 0.37714 1 1 1
 H2 0.49947 0.62863 0.38197 1 1 1
 H2 0.14675 0.02408 0.36726 1 1 1
 H2 0.64663 0.02641 0.36715 1 1 1
 O0 0.50007 0.52999 0.64917 0 1 1
 O0 0.49999 0.33935 0.67841 0 1 1
 H2 0.49996 0.39962 0.71282 0 1 1
CELL_PARAMETERS {angstrom}
 6.24 0.0 0.0
 0.0 6.40638743755 0.0
 0.0 0.0 26.4063874376
