&CONTROL
 calculation = 'relax'
 disk_io = 'none'
 pseudo_dir = '/home/camp/zhonxu/pseudo'
/
&SYSTEM
 ibrav = 0
 nat = 31
 ntyp = 3
 nbnd = 357
 starting_magnetization(1) = 0
 starting_magnetization(2) = 0
 starting_magnetization(3) = 0
 ecutwfc = 40
 ecutrho = 500
 occupations = 'smearing'
 degauss = 0.01
 smearing = 'mp'
 nspin = 1
 Hubbard_U(1) = 0
 Hubbard_U(2) = 0
 Hubbard_U(3) = 0
 Hubbard_alpha(1) = 0
 Hubbard_alpha(2) = 0
 Hubbard_alpha(3) = 0
/
&ELECTRONS
 mixing_beta = 0.3
/
&IONS
/
&CELL
/
K_POINTS {automatic}
 4 4 1 0 0 0
ATOMIC_SPECIES
 O0 15.9994 o_pbe_v1.01.uspp.F.UPF
 Ru1 101.07 ru_pbe_v1.uspp.F.UPF
 H2 1.00794 h_pbe_v1.uspp.F.UPF
ATOMIC_POSITIONS {crystal}
 O0 0.00000 0.00000 0.37850 0 0 1
 O0 0.00000 0.50000 0.40328 0 0 1
 Ru1 0.25000 0.50000 0.45443 0 0 1
 Ru1 0.00000 0.00000 0.45251 0 0 1
 O0 0.25000 0.81000 0.45262 0 0 1
 O0 0.25000 0.19000 0.45252 0 0 1
 O0 0.00000 0.50000 0.49803 0 0 1
 O0 0.00000 0.00000 0.52625 0 0 1
 Ru1 0.25000 0.00000 0.57621 0 0 1
 Ru1 0.00000 0.50000 0.56891 0 0 1
 O0 0.25000 0.69000 0.57542 0 0 1
 O0 0.25000 0.31000 0.57505 0 0 1
 O0 0.00000 0.00000 0.61839 0 0 1
 O0 0.50000 0.00000 0.37861 0 0 1
 O0 0.50000 0.50000 0.40383 0 0 1
 Ru1 0.75000 0.50000 0.45443 0 0 1
 Ru1 0.50000 0.00000 0.45242 0 0 1
 O0 0.75000 0.81000 0.45261 0 0 1
 O0 0.75000 0.19000 0.45253 0 0 1
 O0 0.50000 0.50000 0.50249 0 0 1
 O0 0.50000 0.00000 0.52615 0 0 1
 Ru1 0.75000 0.00000 0.57624 0 0 1
 Ru1 0.50000 0.50000 0.58329 0 0 1
 O0 0.75000 0.69000 0.57547 0 0 1
 O0 0.75000 0.31000 0.57501 0 0 1
 O0 0.50000 0.00000 0.61593 0 0 1
 H2 -0.00037 0.62626 0.38173 1 1 1
 H2 0.49949 0.62171 0.38083 1 1 1
 H2 0.14623 0.03227 0.36654 1 1 1
 H2 0.64707 0.02961 0.36675 1 1 1
 O0 0.50012 0.49740 0.64799 1 1 1
CELL_PARAMETERS {angstrom}
 6.24 0.0 0.0
 0.0 6.40638743755 0.0
 0.0 0.0 26.4063874376
