&CONTROL
 calculation = 'relax'
 disk_io = 'none'
 pseudo_dir = '/home/camp/zhonxu/pseudo'
/
&SYSTEM
 ibrav = 0
 nat = 32
 ntyp = 3
 nbnd = 346
 starting_magnetization(1) = 0
 starting_magnetization(2) = 0
 starting_magnetization(3) = 0
 ecutwfc = 40
 ecutrho = 500
 occupations = 'smearing'
 degauss = 0.01
 smearing = 'mp'
 nspin = 1
 lda_plus_u = .True.
 Hubbard_U(1) = 0
 Hubbard_U(2) = 4.5
 Hubbard_U(3) = 0
 Hubbard_alpha(1) = 0
 Hubbard_alpha(2) = 0
 Hubbard_alpha(3) = 0
 U_projection_type = 'atomic'
/
&ELECTRONS
/
&IONS
/
&CELL
/
K_POINTS {automatic}
 4 4 1 0 0 0
ATOMIC_SPECIES
 O0 15.9994 o_pbe_v1.01.uspp.F.UPF
 Mo1 95.94 mo_pbe_v1.uspp.F.UPF
 H2 1.00794 h_pbe_v1.uspp.F.UPF
ATOMIC_POSITIONS {crystal}
 O0 0.00000 0.00000 0.37132 0 0 1
 O0 0.00000 0.50000 0.38286 0 0 1
 Mo1 0.25000 0.50000 0.44058 0 0 1
 Mo1 0.00000 0.00000 0.44372 0 0 1
 O0 0.25000 0.78000 0.44322 0 0 1
 O0 0.25000 0.22000 0.44319 0 0 1
 O0 0.00000 0.50000 0.49785 0 0 1
 O0 0.00000 0.00000 0.51673 0 0 1
 Mo1 0.25000 0.00000 0.57535 0 0 1
 Mo1 0.00000 0.50000 0.56524 0 0 1
 O0 0.25000 0.72000 0.57085 0 0 1
 O0 0.25000 0.28000 0.57103 0 0 1
 O0 0.00000 0.00000 0.62606 0 0 1
 O0 0.50000 0.00000 0.37138 0 0 1
 O0 0.50000 0.50000 0.38299 0 0 1
 Mo1 0.75000 0.50000 0.44052 0 0 1
 Mo1 0.50000 0.00000 0.44417 0 0 1
 O0 0.75000 0.78000 0.44328 0 0 1
 O0 0.75000 0.22000 0.44314 0 0 1
 O0 0.50000 0.50000 0.49830 0 0 1
 O0 0.50000 0.00000 0.51656 0 0 1
 Mo1 0.75000 0.00000 0.57542 0 0 1
 Mo1 0.50000 0.50000 0.57153 0 0 1
 O0 0.75000 0.72000 0.57048 0 0 1
 O0 0.75000 0.28000 0.57043 0 0 1
 O0 0.50000 0.00000 0.62588 0 0 1
 H2 -0.00076 0.61062 0.36038 1 1 1
 H2 0.49950 0.61732 0.36281 1 1 1
 H2 0.16692 0.01718 0.35687 1 1 1
 H2 0.66531 0.01913 0.35657 1 1 1
 O0 0.51476 0.50023 0.64241 1 1 1
 H2 0.38915 0.49554 0.66823 1 1 1
CELL_PARAMETERS {angstrom}
 5.46 0.0 0.0
 0.0 7.00035713375 0.0
 0.0 0.0 27.0003571337
