&CONTROL
 outdir = 'alpha_0.15/'
 pseudo_dir = '/home/camp/zhonxu/pseudo'
/
&SYSTEM
 ibrav = 0
 nat = 48
 ntyp = 3
 nbnd = 600
 starting_magnetization(1) = 0
 starting_magnetization(2) = 0
 starting_magnetization(3) = 0
 ecutwfc = 40
 ecutrho = 500
 occupations = 'smearing'
 degauss = 0.01
 smearing = 'mp'
 nspin = 2
 lda_plus_u = .True.
 Hubbard_U(1) = 1e-20
 Hubbard_U(2) = 1e-20
 Hubbard_U(3) = 1e-20
 Hubbard_alpha(1) = 0.15
 Hubbard_alpha(2) = 0
 Hubbard_alpha(3) = 0
 U_projection_type = 'atomic'
/
&ELECTRONS
 startingwfc = 'file'
 startingpot = 'file'
 diago_thr_init = 3.08e-10
/
&IONS
/
&CELL
/
K_POINTS {automatic}
 4 4 4 0 0 0
ATOMIC_SPECIES
 Nb0 92.9064 nb_pbe_v1.uspp.F.UPF
 Nb1 92.9064 nb_pbe_v1.uspp.F.UPF
 O2 15.9994 o_pbe_v1.01.uspp.F.UPF
ATOMIC_POSITIONS {crystal}
 Nb0 0.00000 0.00000 0.00000
 Nb1 0.25000 0.25000 0.25000
 Nb1 0.00000 0.00000 0.50000
 Nb1 0.25000 0.25000 0.75000
 Nb1 0.00000 0.50000 0.00000
 Nb1 0.25000 0.75000 0.25000
 Nb1 0.00000 0.50000 0.50000
 Nb1 0.25000 0.75000 0.75000
 Nb1 0.50000 0.00000 0.00000
 Nb1 0.75000 0.25000 0.25000
 Nb1 0.50000 0.00000 0.50000
 Nb1 0.75000 0.25000 0.75000
 Nb1 0.50000 0.50000 0.00000
 Nb1 0.75000 0.75000 0.25000
 Nb1 0.50000 0.50000 0.50000
 Nb1 0.75000 0.75000 0.75000
 O2 0.14500 0.14500 0.00000
 O2 -0.14500 -0.14500 0.00000
 O2 0.39500 0.10500 0.25000
 O2 0.10500 0.39500 0.25000
 O2 0.14500 0.14500 0.50000
 O2 -0.14500 -0.14500 0.50000
 O2 0.39500 0.10500 0.75000
 O2 0.10500 0.39500 0.75000
 O2 0.14500 0.64500 0.00000
 O2 -0.14500 0.35500 0.00000
 O2 0.39500 0.60500 0.25000
 O2 0.10500 0.89500 0.25000
 O2 0.14500 0.64500 0.50000
 O2 -0.14500 0.35500 0.50000
 O2 0.39500 0.60500 0.75000
 O2 0.10500 0.89500 0.75000
 O2 0.64500 0.14500 0.00000
 O2 0.35500 -0.14500 0.00000
 O2 0.89500 0.10500 0.25000
 O2 0.60500 0.39500 0.25000
 O2 0.64500 0.14500 0.50000
 O2 0.35500 -0.14500 0.50000
 O2 0.89500 0.10500 0.75000
 O2 0.60500 0.39500 0.75000
 O2 0.64500 0.64500 0.00000
 O2 0.35500 0.35500 0.00000
 O2 0.89500 0.60500 0.25000
 O2 0.60500 0.89500 0.25000
 O2 0.64500 0.64500 0.50000
 O2 0.35500 0.35500 0.50000
 O2 0.89500 0.60500 0.75000
 O2 0.60500 0.89500 0.75000
CELL_PARAMETERS {angstrom}
 9.88 0.0 0.0
 0.0 9.88 0.0
 0.0 0.0 5.92
