&CONTROL
 outdir = 'alpha_0.15/'
 pseudo_dir = '/home/camp/zhonxu/pseudo'
/
&SYSTEM
 ibrav = 0
 nat = 48
 ntyp = 3
 nbnd = 648
 starting_magnetization(1) = 0
 starting_magnetization(2) = 0
 starting_magnetization(3) = 0
 ecutwfc = 40
 ecutrho = 500
 occupations = 'smearing'
 degauss = 0.01
 smearing = 'mp'
 nspin = 2
 lda_plus_u = .True.
 Hubbard_U(1) = 1e-20
 Hubbard_U(2) = 1e-20
 Hubbard_U(3) = 1e-20
 Hubbard_alpha(1) = 0.15
 Hubbard_alpha(2) = 0
 Hubbard_alpha(3) = 0
 U_projection_type = 'atomic'
/
&ELECTRONS
 startingwfc = 'file'
 startingpot = 'file'
 diago_thr_init = 1.37e-09
/
&IONS
/
&CELL
/
K_POINTS {automatic}
 4 4 4 0 0 0
ATOMIC_SPECIES
 Re0 186.207 re_pbe_v1.uspp.F.UPF
 Re1 186.207 re_pbe_v1.uspp.F.UPF
 O2 15.9994 o_pbe_v1.01.uspp.F.UPF
ATOMIC_POSITIONS {crystal}
 Re0 0.00000 0.00000 0.00000
 Re1 0.25000 0.25000 0.25000
 Re1 0.00000 0.00000 0.50000
 Re1 0.25000 0.25000 0.75000
 Re1 0.00000 0.50000 0.00000
 Re1 0.25000 0.75000 0.25000
 Re1 0.00000 0.50000 0.50000
 Re1 0.25000 0.75000 0.75000
 Re1 0.50000 0.00000 0.00000
 Re1 0.75000 0.25000 0.25000
 Re1 0.50000 0.00000 0.50000
 Re1 0.75000 0.25000 0.75000
 Re1 0.50000 0.50000 0.00000
 Re1 0.75000 0.75000 0.25000
 Re1 0.50000 0.50000 0.50000
 Re1 0.75000 0.75000 0.75000
 O2 0.14000 0.14000 0.00000
 O2 -0.14000 -0.14000 0.00000
 O2 0.39000 0.11000 0.25000
 O2 0.11000 0.39000 0.25000
 O2 0.14000 0.14000 0.50000
 O2 -0.14000 -0.14000 0.50000
 O2 0.39000 0.11000 0.75000
 O2 0.11000 0.39000 0.75000
 O2 0.14000 0.64000 0.00000
 O2 -0.14000 0.36000 0.00000
 O2 0.39000 0.61000 0.25000
 O2 0.11000 0.89000 0.25000
 O2 0.14000 0.64000 0.50000
 O2 -0.14000 0.36000 0.50000
 O2 0.39000 0.61000 0.75000
 O2 0.11000 0.89000 0.75000
 O2 0.64000 0.14000 0.00000
 O2 0.36000 -0.14000 0.00000
 O2 0.89000 0.11000 0.25000
 O2 0.61000 0.39000 0.25000
 O2 0.64000 0.14000 0.50000
 O2 0.36000 -0.14000 0.50000
 O2 0.89000 0.11000 0.75000
 O2 0.61000 0.39000 0.75000
 O2 0.64000 0.64000 0.00000
 O2 0.36000 0.36000 0.00000
 O2 0.89000 0.61000 0.25000
 O2 0.61000 0.89000 0.25000
 O2 0.64000 0.64000 0.50000
 O2 0.36000 0.36000 0.50000
 O2 0.89000 0.61000 0.75000
 O2 0.61000 0.89000 0.75000
CELL_PARAMETERS {angstrom}
 9.9 0.0 0.0
 0.0 9.9 0.0
 0.0 0.0 5.36
