&CONTROL
 calculation = 'relax'
 disk_io = 'none'
 pseudo_dir = '/home/camp/zhonxu/pseudo'
/
&SYSTEM
 ibrav = 0
 nat = 32
 ntyp = 3
 nbnd = 334
 tot_magnetization = 15
 starting_magnetization(1) = 0
 starting_magnetization(2) = 0.6
 starting_magnetization(3) = 0
 ecutwfc = 40
 ecutrho = 500
 occupations = 'smearing'
 degauss = 0.01
 smearing = 'mp'
 nspin = 2
 lda_plus_u = .True.
 Hubbard_U(1) = 0
 Hubbard_U(2) = 2.5
 Hubbard_U(3) = 0
 Hubbard_alpha(1) = 0
 Hubbard_alpha(2) = 0
 Hubbard_alpha(3) = 0
 U_projection_type = 'atomic'
/
&ELECTRONS
/
&IONS
/
&CELL
/
K_POINTS {automatic}
 4 4 1 0 0 0
ATOMIC_SPECIES
 O0 15.9994 o_pbe_v1.01.uspp.F.UPF
 Cr1 51.996 cr_pbe_v1.uspp.F.UPF
 H2 1.00794 h_pbe_v1.uspp.F.UPF
ATOMIC_POSITIONS {crystal}
 O0 0.00000 0.00000 0.37802 0 0 1
 O0 0.00000 0.50000 0.40007 0 0 1
 Cr1 0.25000 0.50000 0.45141 0 0 1
 Cr1 0.00000 0.00000 0.44895 0 0 1
 O0 0.25000 0.80000 0.44993 0 0 1
 O0 0.25000 0.20000 0.45009 0 0 1
 O0 0.00000 0.50000 0.49741 0 0 1
 O0 0.00000 0.00000 0.52321 0 0 1
 Cr1 0.25000 0.00000 0.56633 0 0 1
 Cr1 0.00000 0.50000 0.56483 0 0 1
 O0 0.25000 0.70000 0.57362 0 0 1
 O0 0.25000 0.30000 0.57362 0 0 1
 O0 0.00000 0.00000 0.61802 0 0 1
 O0 0.50000 0.00000 0.37804 0 0 1
 O0 0.50000 0.50000 0.40032 0 0 1
 Cr1 0.75000 0.50000 0.45153 0 0 1
 Cr1 0.50000 0.00000 0.44902 0 0 1
 O0 0.75000 0.80000 0.44998 0 0 1
 O0 0.75000 0.20000 0.45015 0 0 1
 O0 0.50000 0.50000 0.49919 0 0 1
 O0 0.50000 0.00000 0.52323 0 0 1
 Cr1 0.75000 0.00000 0.58367 0 0 1
 Cr1 0.50000 0.50000 0.57611 0 0 1
 O0 0.75000 0.70000 0.57435 0 0 1
 O0 0.75000 0.30000 0.57429 0 0 1
 O0 0.50000 0.00000 0.61732 0 0 1
 H2 -0.00060 0.63803 0.38096 1 1 1
 H2 0.49966 0.63808 0.38118 1 1 1
 H2 0.15665 0.03166 0.36488 1 1 1
 H2 0.65672 0.03139 0.36494 1 1 1
 O0 0.51439 0.49968 0.64532 1 1 1
 H2 0.36454 0.49808 0.66274 1 1 1
CELL_PARAMETERS {angstrom}
 5.8 0.0 0.0
 0.0 6.19425540319 0.0
 0.0 0.0 26.1942554032
