&CONTROL
 calculation = 'relax'
 disk_io = 'none'
 pseudo_dir = '/home/camp/zhonxu/pseudo'
/
&SYSTEM
 ibrav = 0
 nat = 32
 ntyp = 3
 nbnd = 370
 starting_magnetization(1) = 0
 starting_magnetization(2) = 0
 starting_magnetization(3) = 0
 ecutwfc = 40
 ecutrho = 500
 occupations = 'smearing'
 degauss = 0.01
 smearing = 'mp'
 nspin = 1
 lda_plus_u = .True.
 Hubbard_U(1) = 0
 Hubbard_U(2) = 5.5
 Hubbard_U(3) = 0
 Hubbard_alpha(1) = 0
 Hubbard_alpha(2) = 0
 Hubbard_alpha(3) = 0
 U_projection_type = 'atomic'
/
&ELECTRONS
/
&IONS
/
&CELL
/
K_POINTS {automatic}
 4 4 1 0 0 0
ATOMIC_SPECIES
 O0 15.9994 o_pbe_v1.01.uspp.F.UPF
 Pt1 195.08 pt_pbe_v1.uspp.F.UPF
 H2 1.00794 h_pbe_v1.uspp.F.UPF
ATOMIC_POSITIONS {crystal}
 O0 0.00000 0.00000 0.37764 0 0 1
 O0 0.00000 0.50000 0.40129 0 0 1
 Pt1 0.25000 0.50000 0.45094 0 0 1
 Pt1 0.00000 0.00000 0.45263 0 0 1
 O0 0.25000 0.81000 0.44345 0 0 1
 O0 0.25000 0.19000 0.45967 0 0 1
 O0 0.00000 0.50000 0.49659 0 0 1
 O0 0.00000 0.00000 0.52947 0 0 1
 Pt1 0.25000 0.00000 0.57578 0 0 1
 Pt1 0.00000 0.50000 0.57472 0 0 1
 O0 0.25000 0.69000 0.56947 0 0 1
 O0 0.25000 0.31000 0.58472 0 0 1
 O0 0.00000 0.00000 0.62109 0 0 1
 O0 0.50000 0.00000 0.37768 0 0 1
 O0 0.50000 0.50000 0.40071 0 0 1
 Pt1 0.75000 0.50000 0.45095 0 0 1
 Pt1 0.50000 0.00000 0.45262 0 0 1
 O0 0.75000 0.81000 0.44341 0 0 1
 O0 0.75000 0.19000 0.45967 0 0 1
 O0 0.50000 0.50000 0.49742 0 0 1
 O0 0.50000 0.00000 0.52944 0 0 1
 Pt1 0.75000 0.00000 0.57578 0 0 1
 Pt1 0.50000 0.50000 0.57632 0 0 1
 O0 0.75000 0.69000 0.56925 0 0 1
 O0 0.75000 0.31000 0.58440 0 0 1
 O0 0.50000 0.00000 0.62118 0 0 1
 H2 0.00008 0.64002 0.38566 1 1 1
 H2 0.49999 0.64015 0.38519 1 1 1
 H2 0.14336 0.03407 0.36763 1 1 1
 H2 0.64321 0.03467 0.36766 1 1 1
 O0 0.50028 0.52516 0.64982 1 1 1
 H2 0.48978 0.38225 0.66237 1 1 1
CELL_PARAMETERS {angstrom}
 6.46 0.0 0.0
 0.0 6.49124025129 0.0
 0.0 0.0 26.4912402513
