&CONTROL
 calculation = 'relax'
 disk_io = 'none'
 pseudo_dir = '/home/camp/zhonxu/pseudo'
/
&SYSTEM
 ibrav = 0
 nat = 32
 ntyp = 3
 nbnd = 358
 starting_magnetization(1) = 0
 starting_magnetization(2) = 0
 starting_magnetization(3) = 0
 ecutwfc = 40
 ecutrho = 500
 occupations = 'smearing'
 degauss = 0.01
 smearing = 'mp'
 nspin = 1
 lda_plus_u = .True.
 Hubbard_U(1) = 0
 Hubbard_U(2) = 7.5
 Hubbard_U(3) = 0
 Hubbard_alpha(1) = 0
 Hubbard_alpha(2) = 0
 Hubbard_alpha(3) = 0
 U_projection_type = 'atomic'
/
&ELECTRONS
/
&IONS
/
&CELL
/
K_POINTS {automatic}
 4 4 1 0 0 0
ATOMIC_SPECIES
 O0 15.9994 o_pbe_v1.01.uspp.F.UPF
 Re1 186.207 re_pbe_v1.uspp.F.UPF
 H2 1.00794 h_pbe_v1.uspp.F.UPF
ATOMIC_POSITIONS {crystal}
 O0 0.00000 0.00000 0.37062 0 0 1
 O0 0.00000 0.50000 0.38207 0 0 1
 Re1 0.25000 0.50000 0.44175 0 0 1
 Re1 0.00000 0.00000 0.44339 0 0 1
 O0 0.25000 0.78000 0.44175 0 0 1
 O0 0.25000 0.22000 0.44161 0 0 1
 O0 0.00000 0.50000 0.49708 0 0 1
 O0 0.00000 0.00000 0.51503 0 0 1
 Re1 0.25000 0.00000 0.57483 0 0 1
 Re1 0.00000 0.50000 0.56642 0 0 1
 O0 0.25000 0.72000 0.57299 0 0 1
 O0 0.25000 0.28000 0.57305 0 0 1
 O0 0.00000 0.00000 0.62710 0 0 1
 O0 0.50000 0.00000 0.37066 0 0 1
 O0 0.50000 0.50000 0.38236 0 0 1
 Re1 0.75000 0.50000 0.44178 0 0 1
 Re1 0.50000 0.00000 0.44324 0 0 1
 O0 0.75000 0.78000 0.44170 0 0 1
 O0 0.75000 0.22000 0.44168 0 0 1
 O0 0.50000 0.50000 0.49900 0 0 1
 O0 0.50000 0.00000 0.51490 0 0 1
 Re1 0.75000 0.00000 0.57469 0 0 1
 Re1 0.50000 0.50000 0.57265 0 0 1
 O0 0.75000 0.72000 0.57218 0 0 1
 O0 0.75000 0.28000 0.57218 0 0 1
 O0 0.50000 0.00000 0.62645 0 0 1
 H2 -0.00036 0.62507 0.36518 1 1 1
 H2 0.49962 0.62315 0.36455 1 1 1
 H2 0.16950 0.02314 0.35650 1 1 1
 H2 0.67045 0.02188 0.35668 1 1 1
 O0 0.52776 0.49967 0.64391 1 1 1
 H2 0.37882 0.49917 0.66505 1 1 1
CELL_PARAMETERS {angstrom}
 5.36 0.0 0.0
 0.0 7.00035713375 0.0
 0.0 0.0 27.0003571337
