&CONTROL
 calculation = 'relax'
 disk_io = 'none'
 pseudo_dir = '/home/camp/zhonxu/pseudo'
/
&SYSTEM
 ibrav = 0
 nat = 50
 ntyp = 3
 nbnd = 682
 starting_magnetization(1) = 0
 starting_magnetization(2) = 0
 starting_magnetization(3) = 0
 ecutwfc = 40
 ecutrho = 500
 occupations = 'smearing'
 degauss = 0.01
 smearing = 'mp'
 nspin = 1
 Hubbard_U(1) = 0
 Hubbard_U(2) = 0
 Hubbard_U(3) = 0
 Hubbard_alpha(1) = 0
 Hubbard_alpha(2) = 0
 Hubbard_alpha(3) = 0
/
&ELECTRONS
 mixing_beta = 0.3
/
&IONS
/
&CELL
/
K_POINTS {automatic}
 4 4 1 0 0 0
ATOMIC_SPECIES
 O0 15.9994 o_pbe_v1.01.uspp.F.UPF
 Pt1 195.08 pt_pbe_v1.uspp.F.UPF
 H2 1.00794 h_pbe_v1.uspp.F.UPF
ATOMIC_POSITIONS {crystal}
 O0 0.00000 0.50000 0.33146 0 0 0
 Pt1 0.25000 0.50000 0.36553 0 0 0
 Pt1 0.00000 0.00000 0.36553 0 0 0
 O0 0.25000 0.81000 0.36553 0 0 0
 O0 0.25000 0.19000 0.36553 0 0 0
 O0 0.00000 0.50000 0.39959 0 0 0
 O0 0.00000 0.00000 0.42111 0 0 0
 Pt1 0.25000 0.00000 0.45518 0 0 0
 Pt1 0.00000 0.50000 0.45518 0 0 0
 O0 0.25000 0.69000 0.45518 0 0 0
 O0 0.25000 0.31000 0.45518 0 0 0
 O0 0.00000 0.00000 0.48924 0 0 0
 O0 0.00000 0.50000 0.50992 0 0 0
 Pt1 0.25000 0.50000 0.54359 0 0 0
 Pt1 0.00000 0.00000 0.54458 0 0 0
 O0 0.25000 0.80904 0.54554 0 0 0
 O0 0.25000 0.19096 0.54554 0 0 0
 O0 0.00000 0.50000 0.57793 0 0 0
 O0 0.00000 0.00000 0.60034 0 0 0
 Pt1 0.25000 0.00000 0.63481 0 0 0
 Pt1 0.00000 0.50000 0.63429 0 0 0
 O0 0.25000 0.68867 0.64095 0 0 0
 O0 0.25000 0.31133 0.64095 0 0 0
 O0 0.00000 0.00000 0.66814 0 0 0
 O0 0.50000 0.50000 0.33146 0 0 0
 Pt1 0.75000 0.50000 0.36553 0 0 0
 Pt1 0.50000 0.00000 0.36553 0 0 0
 O0 0.75000 0.81000 0.36553 0 0 0
 O0 0.75000 0.19000 0.36553 0 0 0
 O0 0.50000 0.50000 0.39959 0 0 0
 O0 0.50000 0.00000 0.42111 0 0 0
 Pt1 0.75000 0.00000 0.45518 0 0 0
 Pt1 0.50000 0.50000 0.45518 0 0 0
 O0 0.75000 0.69000 0.45518 0 0 0
 O0 0.75000 0.31000 0.45518 0 0 0
 O0 0.50000 0.00000 0.48924 0 0 0
 O0 0.50000 0.50000 0.50992 0 0 0
 Pt1 0.75000 0.50000 0.54359 0 0 0
 Pt1 0.50000 0.00000 0.54458 0 0 0
 O0 0.75000 0.80904 0.54554 0 0 0
 O0 0.75000 0.19096 0.54554 0 0 0
 O0 0.50000 0.50000 0.57793 0 0 0
 O0 0.50000 0.00000 0.60034 0 0 0
 Pt1 0.75000 0.00000 0.63481 0 0 0
 Pt1 0.50000 0.50000 0.63429 0 0 0
 O0 0.75000 0.68867 0.64095 0 0 0
 O0 0.75000 0.31133 0.64095 0 0 0
 O0 0.50000 0.00000 0.66814 0 0 0
 O0 0.50000 0.50000 0.66925 1 1 1
 H2 0.36842 0.50000 0.67892 1 1 1
CELL_PARAMETERS {angstrom}
 6.46 0.0 0.0
 0.0 6.49124025129 0.0
 0.0 0.0 36.2035316724
