&CONTROL
 calculation = 'relax'
 disk_io = 'none'
 pseudo_dir = '/home/camp/zhonxu/pseudo'
/
&SYSTEM
 ibrav = 0
 nat = 49
 ntyp = 2
 nbnd = 561
 starting_magnetization(1) = 0
 starting_magnetization(2) = 0
 ecutwfc = 40
 ecutrho = 500
 occupations = 'smearing'
 degauss = 0.01
 smearing = 'mp'
 nspin = 1
 Hubbard_U(1) = 0
 Hubbard_U(2) = 0
 Hubbard_alpha(1) = 0
 Hubbard_alpha(2) = 0
/
&ELECTRONS
 mixing_beta = 0.3
/
&IONS
/
&CELL
/
K_POINTS {automatic}
 4 4 1 0 0 0
ATOMIC_SPECIES
 O0 15.9994 o_pbe_v1.01.uspp.F.UPF
 Ti1 47.88 ti_pbe_v1.uspp.F.UPF
ATOMIC_POSITIONS {crystal}
 O0 0.00000 0.50000 0.33001 0 0 0
 Ti1 0.25000 0.50000 0.36437 0 0 0
 Ti1 0.00000 0.00000 0.36437 0 0 0
 O0 0.25000 0.81000 0.36437 0 0 0
 O0 0.25000 0.19000 0.36437 0 0 0
 O0 0.00000 0.50000 0.39873 0 0 0
 O0 0.00000 0.00000 0.42043 0 0 0
 Ti1 0.25000 0.00000 0.45479 0 0 0
 Ti1 0.00000 0.50000 0.45479 0 0 0
 O0 0.25000 0.69000 0.45479 0 0 0
 O0 0.25000 0.31000 0.45479 0 0 0
 O0 0.00000 0.00000 0.48915 0 0 0
 O0 0.00000 0.50000 0.51162 0 0 0
 Ti1 0.25000 0.50000 0.54377 0 0 0
 Ti1 0.00000 0.00000 0.55005 0 0 0
 O0 0.25000 0.80156 0.54621 0 0 0
 O0 0.25000 0.19844 0.54621 0 0 0
 O0 0.00000 0.50000 0.58222 0 0 0
 O0 0.00000 0.00000 0.60114 0 0 0
 Ti1 0.25000 0.00000 0.64254 0 0 0
 Ti1 0.00000 0.50000 0.63209 0 0 0
 O0 0.25000 0.68724 0.64131 0 0 0
 O0 0.25000 0.31276 0.64131 0 0 0
 O0 0.00000 0.00000 0.67194 0 0 0
 O0 0.50000 0.50000 0.33001 0 0 0
 Ti1 0.75000 0.50000 0.36437 0 0 0
 Ti1 0.50000 0.00000 0.36437 0 0 0
 O0 0.75000 0.81000 0.36437 0 0 0
 O0 0.75000 0.19000 0.36437 0 0 0
 O0 0.50000 0.50000 0.39873 0 0 0
 O0 0.50000 0.00000 0.42043 0 0 0
 Ti1 0.75000 0.00000 0.45479 0 0 0
 Ti1 0.50000 0.50000 0.45479 0 0 0
 O0 0.75000 0.69000 0.45479 0 0 0
 O0 0.75000 0.31000 0.45479 0 0 0
 O0 0.50000 0.00000 0.48915 0 0 0
 O0 0.50000 0.50000 0.51162 0 0 0
 Ti1 0.75000 0.50000 0.54377 0 0 0
 Ti1 0.50000 0.00000 0.55005 0 0 0
 O0 0.75000 0.80156 0.54621 0 0 0
 O0 0.75000 0.19844 0.54621 0 0 0
 O0 0.50000 0.50000 0.58222 0 0 0
 O0 0.50000 0.00000 0.60114 0 0 0
 Ti1 0.75000 0.00000 0.64254 0 0 0
 Ti1 0.50000 0.50000 0.63209 0 0 0
 O0 0.75000 0.68724 0.64131 0 0 0
 O0 0.75000 0.31276 0.64131 0 0 0
 O0 0.50000 0.00000 0.67194 0 0 0
 O0 0.50000 0.50000 0.66644 1 1 1
CELL_PARAMETERS {angstrom}
 5.94 0.0 0.0
 0.0 6.57609306503 0.0
 0.0 0.0 36.3630549623
