&CONTROL
 calculation = 'relax'
 disk_io = 'none'
 pseudo_dir = '/home/camp/zhonxu/pseudo'
/
&SYSTEM
 ibrav = 0
 nat = 32
 ntyp = 3
 nbnd = 358
 starting_magnetization(1) = 0
 starting_magnetization(2) = 0
 starting_magnetization(3) = 0
 ecutwfc = 40
 ecutrho = 500
 occupations = 'smearing'
 degauss = 0.01
 smearing = 'mp'
 nspin = 1
 lda_plus_u = .True.
 Hubbard_U(1) = 0
 Hubbard_U(2) = 3.5
 Hubbard_U(3) = 0
 Hubbard_alpha(1) = 0
 Hubbard_alpha(2) = 0
 Hubbard_alpha(3) = 0
 U_projection_type = 'atomic'
/
&ELECTRONS
/
&IONS
/
&CELL
/
K_POINTS {automatic}
 4 4 1 0 0 0
ATOMIC_SPECIES
 O0 15.9994 o_pbe_v1.01.uspp.F.UPF
 Ru1 101.07 ru_pbe_v1.uspp.F.UPF
 H2 1.00794 h_pbe_v1.uspp.F.UPF
ATOMIC_POSITIONS {crystal}
 O0 0.00000 0.00000 0.37892 0 0 1
 O0 0.00000 0.50000 0.40311 0 0 1
 Ru1 0.25000 0.50000 0.45372 0 0 1
 Ru1 0.00000 0.00000 0.45304 0 0 1
 O0 0.25000 0.81000 0.45298 0 0 1
 O0 0.25000 0.19000 0.45287 0 0 1
 O0 0.00000 0.50000 0.49751 0 0 1
 O0 0.00000 0.00000 0.52721 0 0 1
 Ru1 0.25000 0.00000 0.57757 0 0 1
 Ru1 0.00000 0.50000 0.56838 0 0 1
 O0 0.25000 0.69000 0.57575 0 0 1
 O0 0.25000 0.31000 0.57568 0 0 1
 O0 0.00000 0.00000 0.61991 0 0 1
 O0 0.50000 0.00000 0.37917 0 0 1
 O0 0.50000 0.50000 0.40309 0 0 1
 Ru1 0.75000 0.50000 0.45373 0 0 1
 Ru1 0.50000 0.00000 0.45315 0 0 1
 O0 0.75000 0.81000 0.45293 0 0 1
 O0 0.75000 0.19000 0.45287 0 0 1
 O0 0.50000 0.50000 0.50167 0 0 1
 O0 0.50000 0.00000 0.52705 0 0 1
 Ru1 0.75000 0.00000 0.57756 0 0 1
 Ru1 0.50000 0.50000 0.57589 0 0 1
 O0 0.75000 0.69000 0.57526 0 0 1
 O0 0.75000 0.31000 0.57513 0 0 1
 O0 0.50000 0.00000 0.61757 0 0 1
 H2 -0.00024 0.62883 0.38242 1 1 1
 H2 0.49955 0.62425 0.38091 1 1 1
 H2 0.14572 0.03200 0.36662 1 1 1
 H2 0.64652 0.02934 0.36692 1 1 1
 O0 0.51387 0.49753 0.64860 1 1 1
 H2 0.37160 0.49614 0.66463 1 1 1
CELL_PARAMETERS {angstrom}
 6.24 0.0 0.0
 0.0 6.40638743755 0.0
 0.0 0.0 26.4063874376
