&CONTROL
 calculation = 'relax'
 disk_io = 'none'
 pseudo_dir = '/home/camp/zhonxu/pseudo'
/
&SYSTEM
 ibrav = 0
 nat = 30
 ntyp = 3
 nbnd = 348
 starting_magnetization(1) = 0
 starting_magnetization(2) = 0
 starting_magnetization(3) = 0
 ecutwfc = 40
 ecutrho = 500
 occupations = 'smearing'
 degauss = 0.01
 smearing = 'mp'
 nspin = 1
 lda_plus_u = .True.
 Hubbard_U(1) = 0
 Hubbard_U(2) = 2
 Hubbard_U(3) = 0
 Hubbard_alpha(1) = 0
 Hubbard_alpha(2) = 0
 Hubbard_alpha(3) = 0
 U_projection_type = 'atomic'
/
&ELECTRONS
/
&IONS
/
&CELL
/
K_POINTS {automatic}
 4 4 1 0 0 0
ATOMIC_SPECIES
 O0 15.9994 o_pbe_v1.01.uspp.F.UPF
 Re1 186.207 re_pbe_v1.uspp.F.UPF
 H2 1.00794 h_pbe_v1.uspp.F.UPF
ATOMIC_POSITIONS {crystal}
 O0 0.00000 0.00000 0.37099 0 0 1
 O0 0.00000 0.50000 0.38201 0 0 1
 Re1 0.25000 0.50000 0.44128 0 0 1
 Re1 0.00000 0.00000 0.44373 0 0 1
 O0 0.25000 0.78000 0.44168 0 0 1
 O0 0.25000 0.22000 0.44171 0 0 1
 O0 0.00000 0.50000 0.49770 0 0 1
 O0 0.00000 0.00000 0.51547 0 0 1
 Re1 0.25000 0.00000 0.57549 0 0 1
 Re1 0.00000 0.50000 0.56793 0 0 1
 O0 0.25000 0.72000 0.57387 0 0 1
 O0 0.25000 0.28000 0.57385 0 0 1
 O0 0.00000 0.00000 0.62771 0 0 1
 O0 0.50000 0.00000 0.37099 0 0 1
 O0 0.50000 0.50000 0.38201 0 0 1
 Re1 0.75000 0.50000 0.44128 0 0 1
 Re1 0.50000 0.00000 0.44373 0 0 1
 O0 0.75000 0.78000 0.44169 0 0 1
 O0 0.75000 0.22000 0.44171 0 0 1
 O0 0.50000 0.50000 0.49770 0 0 1
 O0 0.50000 0.00000 0.51547 0 0 1
 Re1 0.75000 0.00000 0.57549 0 0 1
 Re1 0.50000 0.50000 0.56794 0 0 1
 O0 0.75000 0.72000 0.57387 0 0 1
 O0 0.75000 0.28000 0.57385 0 0 1
 O0 0.50000 0.00000 0.62771 0 0 1
 H2 -0.00038 0.62574 0.36533 1 1 1
 H2 0.49962 0.62574 0.36533 1 1 1
 H2 0.16987 0.02182 0.35682 1 1 1
 H2 0.66988 0.02182 0.35682 1 1 1
CELL_PARAMETERS {angstrom}
 5.36 0.0 0.0
 0.0 7.00035713375 0.0
 0.0 0.0 27.0003571337
