&CONTROL
 calculation = 'relax'
 tstress = .True.
 tprnfor = .True.
 disk_io = 'none'
 pseudo_dir = '/home/camp/zhonxu/pseudo'
/
&SYSTEM
 ibrav = 0
 nat = 33
 ntyp = 3
 nbnd = 367
 starting_magnetization(1) = 0
 starting_magnetization(2) = 0
 starting_magnetization(3) = 0
 ecutwfc = 40
 ecutrho = 500
 occupations = 'smearing'
 degauss = 0.01
 smearing = 'mp'
 nspin = 1
 lda_plus_u = .True.
 Hubbard_U(1) = 0
 Hubbard_U(2) = 4.5
 Hubbard_U(3) = 0
 Hubbard_alpha(1) = 0
 Hubbard_alpha(2) = 0
 Hubbard_alpha(3) = 0
 U_projection_type = 'atomic'
/
&ELECTRONS
/
&IONS
/
&CELL
/
K_POINTS {automatic}
 4 4 1 0 0 0
ATOMIC_SPECIES
 O0 15.9994 o_pbe_v1.01.uspp.F.UPF
 Ir1 192.22 ir_pbe_v1.uspp.F.UPF
 H2 1.00794 h_pbe_v1.uspp.F.UPF
ATOMIC_POSITIONS {crystal}
 O0 0.00000 0.00000 0.37781 0 0 1
 O0 0.00000 0.50000 0.40207 0 0 1
 Ir1 0.25000 0.50000 0.45270 0 0 1
 Ir1 0.00000 0.00000 0.45274 0 0 1
 O0 0.25000 0.81000 0.45260 0 0 1
 O0 0.25000 0.19000 0.45226 0 0 1
 O0 0.00000 0.50000 0.49819 0 0 1
 O0 0.00000 0.00000 0.52835 0 0 1
 Ir1 0.25000 0.00000 0.57535 0 0 1
 Ir1 0.00000 0.50000 0.57154 0 0 1
 O0 0.25000 0.69000 0.57428 0 0 1
 O0 0.25000 0.31000 0.57652 0 0 1
 O0 0.00000 0.00000 0.61996 0 0 1
 O0 0.50000 0.00000 0.37781 0 0 1
 O0 0.50000 0.50000 0.40211 0 0 1
 Ir1 0.75000 0.50000 0.45270 0 0 1
 Ir1 0.50000 0.00000 0.45269 0 0 1
 O0 0.75000 0.81000 0.45259 0 0 1
 O0 0.75000 0.19000 0.45228 0 0 1
 O0 0.50000 0.50000 0.49973 0 0 1
 O0 0.50000 0.00000 0.52827 0 0 1
 Ir1 0.75000 0.00000 0.57534 0 0 1
 Ir1 0.50000 0.50000 0.57770 0 0 1
 O0 0.75000 0.69000 0.57428 0 0 1
 O0 0.75000 0.31000 0.57652 0 0 1
 O0 0.50000 0.00000 0.61934 0 0 1
 H2 0.00004 0.63598 0.38413 1 1 1
 H2 0.49994 0.63644 0.38432 1 1 1
 H2 0.14321 0.03567 0.36632 1 1 1
 H2 0.64367 0.03365 0.36628 1 1 1
 O0 0.49979 0.53811 0.64980 1 1 1
 O0 0.50018 0.34480 0.67942 1 1 1
 H2 0.49998 0.40757 0.71357 1 1 1
CELL_PARAMETERS {angstrom}
 6.36 0.0 0.0
 0.0 6.42052957317 0.0
 0.0 0.0 26.4205295732
