&CONTROL
 calculation = 'relax'
 disk_io = 'none'
 pseudo_dir = '/home/camp/zhonxu/pseudo'
/
&SYSTEM
 ibrav = 0
 nat = 32
 ntyp = 3
 nbnd = 358
 starting_magnetization(1) = 0
 starting_magnetization(2) = 0
 starting_magnetization(3) = 0
 ecutwfc = 40
 ecutrho = 500
 occupations = 'smearing'
 degauss = 0.01
 smearing = 'mp'
 nspin = 2
 Hubbard_U(1) = 0
 Hubbard_U(2) = 0
 Hubbard_U(3) = 0
 Hubbard_alpha(1) = 0
 Hubbard_alpha(2) = 0
 Hubbard_alpha(3) = 0
/
&ELECTRONS
 mixing_beta = 0.3
/
&IONS
/
&CELL
/
K_POINTS {automatic}
 4 4 1 0 0 0
ATOMIC_SPECIES
 O0 15.9994 o_pbe_v1.01.uspp.F.UPF
 Ir1 192.22 ir_pbe_v1.uspp.F.UPF
 H2 1.00794 h_pbe_v1.uspp.F.UPF
ATOMIC_POSITIONS {crystal}
 O0 0.00000 0.00000 0.37866 0 0 0
 O0 0.00000 0.50000 0.40136 0 0 0
 Ir1 0.25000 0.50000 0.45208 0 0 0
 Ir1 0.00000 0.00000 0.45359 0 0 0
 O0 0.25000 0.81000 0.45317 0 0 0
 O0 0.25000 0.19000 0.45281 0 0 0
 O0 0.00000 0.50000 0.49819 0 0 0
 O0 0.00000 0.00000 0.52938 0 0 0
 Ir1 0.25000 0.00000 0.57667 0 0 0
 Ir1 0.00000 0.50000 0.57207 0 0 0
 O0 0.25000 0.69000 0.57715 0 0 0
 O0 0.25000 0.31000 0.57719 0 0 0
 O0 0.00000 0.00000 0.62123 0 0 0
 O0 0.50000 0.00000 0.37866 0 0 0
 O0 0.50000 0.50000 0.40136 0 0 0
 Ir1 0.75000 0.50000 0.45208 0 0 0
 Ir1 0.50000 0.00000 0.45359 0 0 0
 O0 0.75000 0.81000 0.45317 0 0 0
 O0 0.75000 0.19000 0.45281 0 0 0
 O0 0.50000 0.50000 0.49819 0 0 0
 O0 0.50000 0.00000 0.52938 0 0 0
 Ir1 0.75000 0.00000 0.57667 0 0 0
 Ir1 0.50000 0.50000 0.57207 0 0 0
 O0 0.75000 0.69000 0.57715 0 0 0
 O0 0.75000 0.31000 0.57719 0 0 0
 O0 0.50000 0.00000 0.62124 0 0 0
 H2 -0.00005 0.63634 0.38355 0 0 0
 H2 0.49995 0.63634 0.38355 0 0 0
 H2 0.14365 0.03350 0.36708 0 0 0
 H2 0.64365 0.03350 0.36708 0 0 0
 O0 0.49284 0.50000 0.64634 1 1 1
 H2 0.34294 0.50002 0.65648 1 1 1
CELL_PARAMETERS {angstrom}
 6.36 0.0 0.0
 0.0 6.42052957317 0.0
 0.0 0.0 26.4205295732
