&CONTROL
 calculation = 'relax'
 disk_io = 'none'
 pseudo_dir = '/home/camp/zhonxu/pseudo'
/
&SYSTEM
 ibrav = 0
 nat = 30
 ntyp = 3
 nbnd = 336
 starting_magnetization(1) = 0
 starting_magnetization(2) = 0
 starting_magnetization(3) = 0
 ecutwfc = 40
 ecutrho = 500
 occupations = 'smearing'
 degauss = 0.01
 smearing = 'mp'
 nspin = 1
 lda_plus_u = .True.
 Hubbard_U(1) = 0
 Hubbard_U(2) = 6
 Hubbard_U(3) = 0
 Hubbard_alpha(1) = 0
 Hubbard_alpha(2) = 0
 Hubbard_alpha(3) = 0
 U_projection_type = 'atomic'
/
&ELECTRONS
/
&IONS
/
&CELL
/
K_POINTS {automatic}
 4 4 1 0 0 0
ATOMIC_SPECIES
 O0 15.9994 o_pbe_v1.01.uspp.F.UPF
 Mo1 95.94 mo_pbe_v1.uspp.F.UPF
 H2 1.00794 h_pbe_v1.uspp.F.UPF
ATOMIC_POSITIONS {crystal}
 O0 0.00000 0.00000 0.37341 0 0 1
 O0 0.00000 0.50000 0.38034 0 0 1
 Mo1 0.25000 0.50000 0.43781 0 0 1
 Mo1 0.00000 0.00000 0.44619 0 0 1
 O0 0.25000 0.78000 0.44341 0 0 1
 O0 0.25000 0.22000 0.44329 0 0 1
 O0 0.00000 0.50000 0.49585 0 0 1
 O0 0.00000 0.00000 0.51887 0 0 1
 Mo1 0.25000 0.00000 0.57828 0 0 1
 Mo1 0.00000 0.50000 0.56387 0 0 1
 O0 0.25000 0.72000 0.57369 0 0 1
 O0 0.25000 0.28000 0.57375 0 0 1
 O0 0.00000 0.00000 0.62900 0 0 1
 O0 0.50000 0.00000 0.37341 0 0 1
 O0 0.50000 0.50000 0.38034 0 0 1
 Mo1 0.75000 0.50000 0.43781 0 0 1
 Mo1 0.50000 0.00000 0.44619 0 0 1
 O0 0.75000 0.78000 0.44341 0 0 1
 O0 0.75000 0.22000 0.44329 0 0 1
 O0 0.50000 0.50000 0.49585 0 0 1
 O0 0.50000 0.00000 0.51887 0 0 1
 Mo1 0.75000 0.00000 0.57828 0 0 1
 Mo1 0.50000 0.50000 0.56387 0 0 1
 O0 0.75000 0.72000 0.57369 0 0 1
 O0 0.75000 0.28000 0.57375 0 0 1
 O0 0.50000 0.00000 0.62900 0 0 1
 H2 -0.00049 0.61369 0.35886 1 1 1
 H2 0.49951 0.61369 0.35886 1 1 1
 H2 0.16575 0.02069 0.35892 1 1 1
 H2 0.66575 0.02069 0.35892 1 1 1
CELL_PARAMETERS {angstrom}
 5.46 0.0 0.0
 0.0 7.00035713375 0.0
 0.0 0.0 27.0003571337
