&CONTROL
 calculation = 'relax'
 tprnfor = .True.
 disk_io = 'none'
 pseudo_dir = '/home/camp/zhonxu/pseudo'
/
&SYSTEM
 ibrav = 0
 nat = 51
 ntyp = 3
 nbnd = 667
 starting_magnetization(1) = 0
 starting_magnetization(2) = 0
 starting_magnetization(3) = 0
 ecutwfc = 40
 ecutrho = 500
 occupations = 'smearing'
 degauss = 0.01
 smearing = 'mp'
 nspin = 1
 Hubbard_U(1) = 0
 Hubbard_U(2) = 0
 Hubbard_U(3) = 0
 Hubbard_alpha(1) = 0
 Hubbard_alpha(2) = 0
 Hubbard_alpha(3) = 0
/
&ELECTRONS
 mixing_beta = 0.3
/
&IONS
/
&CELL
/
K_POINTS {automatic}
 4 4 1 0 0 0
ATOMIC_SPECIES
 O0 15.9994 o_pbe_v1.01.uspp.F.UPF
 Rh1 102.9055 rh_pbe_v1.uspp.F.UPF
 H2 1.00794 h_pbe_v1.uspp.F.UPF
ATOMIC_POSITIONS {crystal}
 O0 0.00000 0.50000 0.33244 0 0 0
 Rh1 0.25000 0.50000 0.36631 0 0 0
 Rh1 0.00000 0.00000 0.36631 0 0 0
 O0 0.25000 0.81000 0.36631 0 0 0
 O0 0.25000 0.19000 0.36631 0 0 0
 O0 0.00000 0.50000 0.40017 0 0 0
 O0 0.00000 0.00000 0.42157 0 0 0
 Rh1 0.25000 0.00000 0.45544 0 0 0
 Rh1 0.00000 0.50000 0.45544 0 0 0
 O0 0.25000 0.69000 0.45544 0 0 0
 O0 0.25000 0.31000 0.45544 0 0 0
 O0 0.00000 0.00000 0.48930 0 0 0
 O0 0.00000 0.49989 0.51003 1 1 1
 Rh1 0.25244 0.49867 0.54438 1 1 1
 Rh1 0.00000 -0.00051 0.54438 1 1 1
 O0 0.24997 0.80559 0.54455 1 1 1
 O0 0.25080 0.19225 0.54407 1 1 1
 O0 0.00000 0.48980 0.57801 1 1 1
 O0 0.00000 0.00443 0.59897 1 1 1
 Rh1 0.25008 -0.00175 0.63377 1 1 1
 Rh1 0.00000 0.49810 0.63080 1 1 1
 O0 0.24684 0.69047 0.63302 1 1 1
 O0 0.24963 0.30693 0.63624 1 1 1
 O0 0.00000 -0.00591 0.66720 1 1 1
 O0 0.50000 0.50000 0.33244 0 0 0
 Rh1 0.75000 0.50000 0.36631 0 0 0
 Rh1 0.50000 0.00000 0.36631 0 0 0
 O0 0.75000 0.81000 0.36631 0 0 0
 O0 0.75000 0.19000 0.36631 0 0 0
 O0 0.50000 0.50000 0.40017 0 0 0
 O0 0.50000 0.00000 0.42157 0 0 0
 Rh1 0.75000 0.00000 0.45544 0 0 0
 Rh1 0.50000 0.50000 0.45544 0 0 0
 O0 0.75000 0.69000 0.45544 0 0 0
 O0 0.75000 0.31000 0.45544 0 0 0
 O0 0.50000 0.00000 0.48930 0 0 0
 O0 0.50000 0.50098 0.50995 1 1 1
 Rh1 0.74756 0.49867 0.54438 1 1 1
 Rh1 0.50000 -0.00086 0.54444 1 1 1
 O0 0.75003 0.80559 0.54455 1 1 1
 O0 0.74920 0.19225 0.54407 1 1 1
 O0 0.50000 0.49513 0.57923 1 1 1
 O0 0.50000 0.00130 0.59882 1 1 1
 Rh1 0.74992 -0.00175 0.63377 1 1 1
 Rh1 0.50000 0.49963 0.63585 1 1 1
 O0 0.75316 0.69047 0.63302 1 1 1
 O0 0.75037 0.30693 0.63624 1 1 1
 O0 0.50000 -0.01836 0.66664 1 1 1
 O0 0.50000 0.52950 0.68902 1 1 1
 O0 0.50000 0.33035 0.70712 1 1 1
 H2 0.50000 0.37695 0.73321 1 1 1
CELL_PARAMETERS {angstrom}
 6.22 0.0 0.0
 0.0 6.4346717088 0.0
 0.0 0.0 36.0971828125
