&CONTROL
 calculation = 'relax'
 tprnfor = .True.
 disk_io = 'none'
 pseudo_dir = '/home/camp/zhonxu/pseudo'
/
&SYSTEM
 ibrav = 0
 nat = 51
 ntyp = 3
 nbnd = 691
 starting_magnetization(1) = 0
 starting_magnetization(2) = 0
 starting_magnetization(3) = 0
 ecutwfc = 40
 ecutrho = 500
 occupations = 'smearing'
 degauss = 0.01
 smearing = 'mp'
 nspin = 1
 Hubbard_U(1) = 0
 Hubbard_U(2) = 0
 Hubbard_U(3) = 0
 Hubbard_alpha(1) = 0
 Hubbard_alpha(2) = 0
 Hubbard_alpha(3) = 0
/
&ELECTRONS
 mixing_beta = 0.3
/
&IONS
/
&CELL
/
K_POINTS {automatic}
 4 4 1 0 0 0
ATOMIC_SPECIES
 O0 15.9994 o_pbe_v1.01.uspp.F.UPF
 Pt1 195.08 pt_pbe_v1.uspp.F.UPF
 H2 1.00794 h_pbe_v1.uspp.F.UPF
ATOMIC_POSITIONS {crystal}
 O0 0.00000 0.50000 0.33146 0 0 0
 Pt1 0.25000 0.50000 0.36553 0 0 0
 Pt1 0.00000 0.00000 0.36553 0 0 0
 O0 0.25000 0.81000 0.36553 0 0 0
 O0 0.25000 0.19000 0.36553 0 0 0
 O0 0.00000 0.50000 0.39959 0 0 0
 O0 0.00000 0.00000 0.42111 0 0 0
 Pt1 0.25000 0.00000 0.45518 0 0 0
 Pt1 0.00000 0.50000 0.45518 0 0 0
 O0 0.25000 0.69000 0.45518 0 0 0
 O0 0.25000 0.31000 0.45518 0 0 0
 O0 0.00000 0.00000 0.48924 0 0 0
 O0 0.00000 0.48370 0.51051 1 1 1
 Pt1 0.24997 0.50048 0.54417 1 1 1
 Pt1 0.00000 0.00070 0.54488 1 1 1
 O0 0.25056 0.80992 0.54233 1 1 1
 O0 0.24926 0.19123 0.54636 1 1 1
 O0 0.00000 0.52405 0.57761 1 1 1
 O0 0.00000 0.02498 0.60029 1 1 1
 Pt1 0.24993 -0.00903 0.63421 1 1 1
 Pt1 0.00000 0.48739 0.63356 1 1 1
 O0 0.24887 0.68190 0.62698 1 1 1
 O0 0.24781 0.30245 0.64230 1 1 1
 O0 0.00000 -0.02414 0.66735 1 1 1
 O0 0.50000 0.50000 0.33146 0 0 0
 Pt1 0.75000 0.50000 0.36553 0 0 0
 Pt1 0.50000 0.00000 0.36553 0 0 0
 O0 0.75000 0.81000 0.36553 0 0 0
 O0 0.75000 0.19000 0.36553 0 0 0
 O0 0.50000 0.50000 0.39959 0 0 0
 O0 0.50000 0.00000 0.42111 0 0 0
 Pt1 0.75000 0.00000 0.45518 0 0 0
 Pt1 0.50000 0.50000 0.45518 0 0 0
 O0 0.75000 0.69000 0.45518 0 0 0
 O0 0.75000 0.31000 0.45518 0 0 0
 O0 0.50000 0.00000 0.48924 0 0 0
 O0 0.50000 0.48602 0.50998 1 1 1
 Pt1 0.75003 0.50048 0.54417 1 1 1
 Pt1 0.50000 0.00107 0.54480 1 1 1
 O0 0.74944 0.80992 0.54233 1 1 1
 O0 0.75074 0.19123 0.54636 1 1 1
 O0 0.50000 0.48809 0.57834 1 1 1
 O0 0.50000 0.01266 0.60017 1 1 1
 Pt1 0.75007 -0.00903 0.63421 1 1 1
 Pt1 0.50000 0.49321 0.63473 1 1 1
 O0 0.75113 0.68190 0.62698 1 1 1
 O0 0.75219 0.30245 0.64230 1 1 1
 O0 0.50000 -0.03103 0.66721 1 1 1
 O0 0.50000 0.54131 0.68813 1 1 1
 O0 0.50000 0.34790 0.70823 1 1 1
 H2 0.50000 0.40480 0.73356 1 1 1
CELL_PARAMETERS {angstrom}
 6.46 0.0 0.0
 0.0 6.49124025129 0.0
 0.0 0.0 36.2035316724
