&CONTROL
 calculation = 'relax'
 disk_io = 'none'
 pseudo_dir = '/home/camp/zhonxu/pseudo'
/
&SYSTEM
 ibrav = 0
 nat = 30
 ntyp = 3
 nbnd = 300
 starting_magnetization(1) = 0
 starting_magnetization(2) = 0
 starting_magnetization(3) = 0
 ecutwfc = 40
 ecutrho = 500
 occupations = 'smearing'
 degauss = 0.01
 smearing = 'mp'
 nspin = 1
 lda_plus_u = .True.
 Hubbard_U(1) = 0
 Hubbard_U(2) = 8
 Hubbard_U(3) = 0
 Hubbard_alpha(1) = 0
 Hubbard_alpha(2) = 0
 Hubbard_alpha(3) = 0
 U_projection_type = 'atomic'
/
&ELECTRONS
/
&IONS
/
&CELL
/
K_POINTS {automatic}
 4 4 1 0 0 0
ATOMIC_SPECIES
 O0 15.9994 o_pbe_v1.01.uspp.F.UPF
 Ti1 47.88 ti_pbe_v1.uspp.F.UPF
 H2 1.00794 h_pbe_v1.uspp.F.UPF
ATOMIC_POSITIONS {crystal}
 O0 0.00000 0.00000 0.37973 0 0 1
 O0 0.00000 0.50000 0.40012 0 0 1
 Ti1 0.25000 0.50000 0.45066 0 0 1
 Ti1 0.00000 0.00000 0.45257 0 0 1
 O0 0.25000 0.81000 0.45100 0 0 1
 O0 0.25000 0.19000 0.45209 0 0 1
 O0 0.00000 0.50000 0.49902 0 0 1
 O0 0.00000 0.00000 0.52658 0 0 1
 Ti1 0.25000 0.00000 0.58103 0 0 1
 Ti1 0.00000 0.50000 0.56959 0 0 1
 O0 0.25000 0.69000 0.58034 0 0 1
 O0 0.25000 0.31000 0.58035 0 0 1
 O0 0.00000 0.00000 0.62231 0 0 1
 O0 0.50000 0.00000 0.37973 0 0 1
 O0 0.50000 0.50000 0.40012 0 0 1
 Ti1 0.75000 0.50000 0.45066 0 0 1
 Ti1 0.50000 0.00000 0.45257 0 0 1
 O0 0.75000 0.81000 0.45100 0 0 1
 O0 0.75000 0.19000 0.45209 0 0 1
 O0 0.50000 0.50000 0.49902 0 0 1
 O0 0.50000 0.00000 0.52658 0 0 1
 Ti1 0.75000 0.00000 0.58103 0 0 1
 Ti1 0.50000 0.50000 0.56959 0 0 1
 O0 0.75000 0.69000 0.58034 0 0 1
 O0 0.75000 0.31000 0.58035 0 0 1
 O0 0.50000 0.00000 0.62231 0 0 1
 H2 -0.00054 0.63156 0.38138 1 1 1
 H2 0.49946 0.63156 0.38138 1 1 1
 H2 0.15018 0.02277 0.36480 1 1 1
 H2 0.65018 0.02277 0.36480 1 1 1
CELL_PARAMETERS {angstrom}
 5.94 0.0 0.0
 0.0 6.57609306503 0.0
 0.0 0.0 26.576093065
