&CONTROL
 calculation = 'relax'
 disk_io = 'none'
 pseudo_dir = '/home/camp/zhonxu/pseudo'
/
&SYSTEM
 ibrav = 0
 nat = 32
 ntyp = 3
 nbnd = 358
 starting_magnetization(1) = 0
 starting_magnetization(2) = 0
 starting_magnetization(3) = 0
 ecutwfc = 40
 ecutrho = 500
 occupations = 'smearing'
 degauss = 0.01
 smearing = 'mp'
 nspin = 1
 lda_plus_u = .True.
 Hubbard_U(1) = 0
 Hubbard_U(2) = 1
 Hubbard_U(3) = 0
 Hubbard_alpha(1) = 0
 Hubbard_alpha(2) = 0
 Hubbard_alpha(3) = 0
 U_projection_type = 'atomic'
/
&ELECTRONS
/
&IONS
/
&CELL
/
K_POINTS {automatic}
 4 4 1 0 0 0
ATOMIC_SPECIES
 O0 15.9994 o_pbe_v1.01.uspp.F.UPF
 Rh1 102.9055 rh_pbe_v1.uspp.F.UPF
 H2 1.00794 h_pbe_v1.uspp.F.UPF
ATOMIC_POSITIONS {crystal}
 O0 0.00000 0.00000 0.37829 0 0 1
 O0 0.00000 0.50000 0.40142 0 0 1
 Rh1 0.25000 0.50000 0.45256 0 0 1
 Rh1 0.00000 0.00000 0.45276 0 0 1
 O0 0.25000 0.81000 0.45227 0 0 1
 O0 0.25000 0.19000 0.45220 0 0 1
 O0 0.00000 0.50000 0.49838 0 0 1
 O0 0.00000 0.00000 0.52829 0 0 1
 Rh1 0.25000 0.00000 0.57572 0 0 1
 Rh1 0.00000 0.50000 0.57055 0 0 1
 O0 0.25000 0.69000 0.57626 0 0 1
 O0 0.25000 0.31000 0.57636 0 0 1
 O0 0.00000 0.00000 0.62101 0 0 1
 O0 0.50000 0.00000 0.37815 0 0 1
 O0 0.50000 0.50000 0.40111 0 0 1
 Rh1 0.75000 0.50000 0.45256 0 0 1
 Rh1 0.50000 0.00000 0.45264 0 0 1
 O0 0.75000 0.81000 0.45229 0 0 1
 O0 0.75000 0.19000 0.45222 0 0 1
 O0 0.50000 0.50000 0.49965 0 0 1
 O0 0.50000 0.00000 0.52816 0 0 1
 Rh1 0.75000 0.00000 0.57570 0 0 1
 Rh1 0.50000 0.50000 0.57571 0 0 1
 O0 0.75000 0.69000 0.57529 0 0 1
 O0 0.75000 0.31000 0.57537 0 0 1
 O0 0.50000 0.00000 0.62071 0 0 1
 H2 -0.00001 0.63765 0.38431 1 1 1
 H2 0.49994 0.63919 0.38470 1 1 1
 H2 0.14841 0.03399 0.36770 1 1 1
 H2 0.64821 0.03448 0.36752 1 1 1
 O0 0.51542 0.49964 0.64861 1 1 1
 H2 0.36869 0.49947 0.66265 1 1 1
CELL_PARAMETERS {angstrom}
 6.22 0.0 0.0
 0.0 6.4346717088 0.0
 0.0 0.0 26.4346717088
