&CONTROL
 calculation = 'relax'
 tprnfor = .True.
 disk_io = 'none'
 pseudo_dir = '/home/camp/zhonxu/pseudo'
/
&SYSTEM
 ibrav = 0
 nat = 51
 ntyp = 3
 nbnd = 619
 tot_magnetization = 31
 starting_magnetization(1) = 0
 starting_magnetization(2) = 0.6
 starting_magnetization(3) = 0
 ecutwfc = 40
 ecutrho = 500
 occupations = 'smearing'
 degauss = 0.01
 smearing = 'mp'
 nspin = 2
 Hubbard_U(1) = 0
 Hubbard_U(2) = 0
 Hubbard_U(3) = 0
 Hubbard_alpha(1) = 0
 Hubbard_alpha(2) = 0
 Hubbard_alpha(3) = 0
/
&ELECTRONS
 mixing_beta = 0.3
/
&IONS
/
&CELL
/
K_POINTS {automatic}
 4 4 1 0 0 0
ATOMIC_SPECIES
 O0 15.9994 o_pbe_v1.01.uspp.F.UPF
 Cr1 51.996 cr_pbe_v1.uspp.F.UPF
 H2 1.00794 h_pbe_v1.uspp.F.UPF
ATOMIC_POSITIONS {crystal}
 O0 0.00000 0.50000 0.33549 0 0 0
 Cr1 0.25000 0.50000 0.37012 0 0 0
 Cr1 0.00000 0.00000 0.37012 0 0 0
 O0 0.25000 0.80000 0.37012 0 0 0
 O0 0.25000 0.20000 0.37012 0 0 0
 O0 0.00000 0.50000 0.40475 0 0 0
 O0 0.00000 0.00000 0.42207 0 0 0
 Cr1 0.25000 0.00000 0.45671 0 0 0
 Cr1 0.00000 0.50000 0.45671 0 0 0
 O0 0.25000 0.70000 0.45671 0 0 0
 O0 0.25000 0.30000 0.45671 0 0 0
 O0 0.00000 0.00000 0.49134 0 0 0
 O0 0.00000 0.50000 0.51043 1 1 1
 Cr1 0.25722 0.49998 0.54443 1 1 1
 Cr1 0.00000 -0.00012 0.54534 1 1 1
 O0 0.25041 0.80313 0.54543 1 1 1
 O0 0.25037 0.19654 0.54544 1 1 1
 O0 0.00000 0.49779 0.57904 1 1 1
 O0 0.00000 -0.00036 0.59961 1 1 1
 Cr1 0.24150 -0.00428 0.63745 1 1 1
 Cr1 0.00000 0.49658 0.62730 1 1 1
 O0 0.23816 0.68939 0.63585 1 1 1
 O0 0.24245 0.30519 0.63706 1 1 1
 O0 0.00000 -0.00097 0.66909 1 1 1
 O0 0.50000 0.50000 0.33549 0 0 0
 Cr1 0.75000 0.50000 0.37012 0 0 0
 Cr1 0.50000 0.00000 0.37012 0 0 0
 O0 0.75000 0.80000 0.37012 0 0 0
 O0 0.75000 0.20000 0.37012 0 0 0
 O0 0.50000 0.50000 0.40475 0 0 0
 O0 0.50000 0.00000 0.42207 0 0 0
 Cr1 0.75000 0.00000 0.45671 0 0 0
 Cr1 0.50000 0.50000 0.45671 0 0 0
 O0 0.75000 0.70000 0.45671 0 0 0
 O0 0.75000 0.30000 0.45671 0 0 0
 O0 0.50000 0.00000 0.49134 0 0 0
 O0 0.50000 0.49977 0.51015 1 1 1
 Cr1 0.74278 0.49998 0.54443 1 1 1
 Cr1 0.50000 0.00012 0.54801 1 1 1
 O0 0.74959 0.80313 0.54543 1 1 1
 O0 0.74963 0.19654 0.54544 1 1 1
 O0 0.50000 0.49957 0.58047 1 1 1
 O0 0.50000 -0.00019 0.59873 1 1 1
 Cr1 0.75850 -0.00428 0.63745 1 1 1
 Cr1 0.50000 0.49620 0.63893 1 1 1
 O0 0.76184 0.68939 0.63585 1 1 1
 O0 0.75755 0.30519 0.63706 1 1 1
 O0 0.50000 -0.01137 0.66444 1 1 1
 O0 0.50000 0.51837 0.69021 1 1 1
 O0 0.50000 0.31931 0.71080 1 1 1
 H2 0.50000 0.37699 0.73655 1 1 1
CELL_PARAMETERS {angstrom}
 5.8 0.0 0.0
 0.0 6.19425540319 0.0
 0.0 0.0 35.7690852661
