&CONTROL
 calculation = 'relax'
 disk_io = 'none'
 pseudo_dir = '/home/camp/zhonxu/pseudo'
/
&SYSTEM
 ibrav = 0
 nat = 30
 ntyp = 3
 nbnd = 348
 starting_magnetization(1) = 0
 starting_magnetization(2) = 0
 starting_magnetization(3) = 0
 ecutwfc = 40
 ecutrho = 500
 occupations = 'smearing'
 degauss = 0.01
 smearing = 'mp'
 nspin = 1
 lda_plus_u = .True.
 Hubbard_U(1) = 0
 Hubbard_U(2) = 6.5
 Hubbard_U(3) = 0
 Hubbard_alpha(1) = 0
 Hubbard_alpha(2) = 0
 Hubbard_alpha(3) = 0
 U_projection_type = 'atomic'
/
&ELECTRONS
/
&IONS
/
&CELL
/
K_POINTS {automatic}
 4 4 1 0 0 0
ATOMIC_SPECIES
 O0 15.9994 o_pbe_v1.01.uspp.F.UPF
 Ru1 101.07 ru_pbe_v1.uspp.F.UPF
 H2 1.00794 h_pbe_v1.uspp.F.UPF
ATOMIC_POSITIONS {crystal}
 O0 0.00000 0.00000 0.37999 0 0 1
 O0 0.00000 0.50000 0.40227 0 0 1
 Ru1 0.25000 0.50000 0.45313 0 0 1
 Ru1 0.00000 0.00000 0.45407 0 0 1
 O0 0.25000 0.81000 0.45361 0 0 1
 O0 0.25000 0.19000 0.45355 0 0 1
 O0 0.00000 0.50000 0.49876 0 0 1
 O0 0.00000 0.00000 0.52803 0 0 1
 Ru1 0.25000 0.00000 0.57865 0 0 1
 Ru1 0.00000 0.50000 0.56981 0 0 1
 O0 0.25000 0.69000 0.57629 0 0 1
 O0 0.25000 0.31000 0.57664 0 0 1
 O0 0.00000 0.00000 0.62003 0 0 1
 O0 0.50000 0.00000 0.37999 0 0 1
 O0 0.50000 0.50000 0.40227 0 0 1
 Ru1 0.75000 0.50000 0.45313 0 0 1
 Ru1 0.50000 0.00000 0.45407 0 0 1
 O0 0.75000 0.81000 0.45361 0 0 1
 O0 0.75000 0.19000 0.45355 0 0 1
 O0 0.50000 0.50000 0.49876 0 0 1
 O0 0.50000 0.00000 0.52803 0 0 1
 Ru1 0.75000 0.00000 0.57865 0 0 1
 Ru1 0.50000 0.50000 0.56981 0 0 1
 O0 0.75000 0.69000 0.57629 0 0 1
 O0 0.75000 0.31000 0.57663 0 0 1
 O0 0.50000 0.00000 0.62003 0 0 1
 H2 -0.00041 0.62987 0.38192 1 1 1
 H2 0.49959 0.62987 0.38192 1 1 1
 H2 0.14647 0.02890 0.36769 1 1 1
 H2 0.64647 0.02890 0.36769 1 1 1
CELL_PARAMETERS {angstrom}
 6.24 0.0 0.0
 0.0 6.40638743755 0.0
 0.0 0.0 26.4063874376
