&CONTROL
 outdir = 'alpha_0/'
 pseudo_dir = '/home/camp/zhonxu/pseudo'
/
&SYSTEM
 ibrav = 0
 nat = 48
 ntyp = 3
 nbnd = 552
 starting_magnetization(1) = 0
 starting_magnetization(2) = 0
 starting_magnetization(3) = 0
 ecutwfc = 40
 ecutrho = 500
 occupations = 'smearing'
 degauss = 0.01
 smearing = 'mp'
 nspin = 2
 lda_plus_u = .True.
 Hubbard_U(1) = 1e-20
 Hubbard_U(2) = 1e-20
 Hubbard_U(3) = 1e-20
 Hubbard_alpha(1) = 0
 Hubbard_alpha(2) = 0
 Hubbard_alpha(3) = 0
 U_projection_type = 'atomic'
/
&ELECTRONS
 startingwfc = 'file'
 startingpot = 'file'
 diago_thr_init = 3.81e-10
/
&IONS
/
&CELL
/
K_POINTS {automatic}
 4 4 4 0 0 0
ATOMIC_SPECIES
 Ti0 47.88 ti_pbe_v1.uspp.F.UPF
 Ti1 47.88 ti_pbe_v1.uspp.F.UPF
 O2 15.9994 o_pbe_v1.01.uspp.F.UPF
ATOMIC_POSITIONS {crystal}
 Ti0 0.00000 0.00000 0.00000
 Ti1 0.25000 0.25000 0.25000
 Ti1 0.00000 0.00000 0.50000
 Ti1 0.25000 0.25000 0.75000
 Ti1 0.00000 0.50000 0.00000
 Ti1 0.25000 0.75000 0.25000
 Ti1 0.00000 0.50000 0.50000
 Ti1 0.25000 0.75000 0.75000
 Ti1 0.50000 0.00000 0.00000
 Ti1 0.75000 0.25000 0.25000
 Ti1 0.50000 0.00000 0.50000
 Ti1 0.75000 0.25000 0.75000
 Ti1 0.50000 0.50000 0.00000
 Ti1 0.75000 0.75000 0.25000
 Ti1 0.50000 0.50000 0.50000
 Ti1 0.75000 0.75000 0.75000
 O2 0.15500 0.15500 0.00000
 O2 -0.15500 -0.15500 0.00000
 O2 0.40500 0.09500 0.25000
 O2 0.09500 0.40500 0.25000
 O2 0.15500 0.15500 0.50000
 O2 -0.15500 -0.15500 0.50000
 O2 0.40500 0.09500 0.75000
 O2 0.09500 0.40500 0.75000
 O2 0.15500 0.65500 0.00000
 O2 -0.15500 0.34500 0.00000
 O2 0.40500 0.59500 0.25000
 O2 0.09500 0.90500 0.25000
 O2 0.15500 0.65500 0.50000
 O2 -0.15500 0.34500 0.50000
 O2 0.40500 0.59500 0.75000
 O2 0.09500 0.90500 0.75000
 O2 0.65500 0.15500 0.00000
 O2 0.34500 -0.15500 0.00000
 O2 0.90500 0.09500 0.25000
 O2 0.59500 0.40500 0.25000
 O2 0.65500 0.15500 0.50000
 O2 0.34500 -0.15500 0.50000
 O2 0.90500 0.09500 0.75000
 O2 0.59500 0.40500 0.75000
 O2 0.65500 0.65500 0.00000
 O2 0.34500 0.34500 0.00000
 O2 0.90500 0.59500 0.25000
 O2 0.59500 0.90500 0.25000
 O2 0.65500 0.65500 0.50000
 O2 0.34500 0.34500 0.50000
 O2 0.90500 0.59500 0.75000
 O2 0.59500 0.90500 0.75000
CELL_PARAMETERS {angstrom}
 9.3 0.0 0.0
 0.0 9.3 0.0
 0.0 0.0 5.94
