&CONTROL
 calculation = 'relax'
 tstress = .True.
 tprnfor = .True.
 disk_io = 'none'
 pseudo_dir = '/home/camp/zhonxu/pseudo'
/
&SYSTEM
 ibrav = 0
 nat = 31
 ntyp = 3
 nbnd = 345
 tot_magnetization = 22
 starting_magnetization(1) = 0
 starting_magnetization(2) = 0.6
 starting_magnetization(3) = 0
 ecutwfc = 40
 ecutrho = 500
 occupations = 'smearing'
 degauss = 0.01
 smearing = 'mp'
 nspin = 2
 lda_plus_u = .True.
 Hubbard_U(1) = 0
 Hubbard_U(2) = 8
 Hubbard_U(3) = 0
 Hubbard_alpha(1) = 0
 Hubbard_alpha(2) = 0
 Hubbard_alpha(3) = 0
 U_projection_type = 'atomic'
/
&ELECTRONS
/
&IONS
/
&CELL
/
K_POINTS {automatic}
 4 4 1 0 0 0
ATOMIC_SPECIES
 O0 15.9994 o_pbe_v1.01.uspp.F.UPF
 Mn1 54.938 mn_pbe_v1.uspp.F.UPF
 H2 1.00794 h_pbe_v1.uspp.F.UPF
ATOMIC_POSITIONS {crystal}
 O0 0.00000 0.00000 0.36989 0 0 1
 O0 0.00000 0.50000 0.39052 0 0 1
 Mn1 0.25000 0.50000 0.44518 0 0 1
 Mn1 0.00000 0.00000 0.44610 0 0 1
 O0 0.25000 0.80000 0.44405 0 0 1
 O0 0.25000 0.20000 0.44839 0 0 1
 O0 0.00000 0.50000 0.49470 0 0 1
 O0 0.00000 0.00000 0.52719 0 0 1
 Mn1 0.25000 0.00000 0.57747 0 0 1
 Mn1 0.00000 0.50000 0.57264 0 0 1
 O0 0.25000 0.70000 0.58772 0 0 1
 O0 0.25000 0.30000 0.58813 0 0 1
 O0 0.00000 0.00000 0.62839 0 0 1
 O0 0.50000 0.00000 0.36964 0 0 1
 O0 0.50000 0.50000 0.39088 0 0 1
 Mn1 0.75000 0.50000 0.44515 0 0 1
 Mn1 0.50000 0.00000 0.44572 0 0 1
 O0 0.75000 0.80000 0.44404 0 0 1
 O0 0.75000 0.20000 0.44857 0 0 1
 O0 0.50000 0.50000 0.49705 0 0 1
 O0 0.50000 0.00000 0.52720 0 0 1
 Mn1 0.75000 0.00000 0.57747 0 0 1
 Mn1 0.50000 0.50000 0.57440 0 0 1
 O0 0.75000 0.70000 0.58772 0 0 1
 O0 0.75000 0.30000 0.58815 0 0 1
 O0 0.50000 0.00000 0.62924 0 0 1
 H2 0.00068 0.64950 0.37572 1 1 1
 H2 0.50080 0.64801 0.37556 1 1 1
 H2 0.16086 0.04668 0.35971 1 1 1
 H2 0.66044 0.04758 0.35944 1 1 1
 O0 0.49978 0.50030 0.65110 1 1 1
CELL_PARAMETERS {angstrom}
 5.68 0.0 0.0
 0.0 6.16597113195 0.0
 0.0 0.0 26.1659711319
