&CONTROL
 calculation = 'relax'
 tprnfor = .True.
 disk_io = 'none'
 pseudo_dir = '/home/camp/zhonxu/pseudo'
/
&SYSTEM
 ibrav = 0
 nat = 51
 ntyp = 3
 nbnd = 667
 starting_magnetization(1) = 0
 starting_magnetization(2) = 0
 starting_magnetization(3) = 0
 ecutwfc = 40
 ecutrho = 500
 occupations = 'smearing'
 degauss = 0.01
 smearing = 'mp'
 nspin = 1
 Hubbard_U(1) = 0
 Hubbard_U(2) = 0
 Hubbard_U(3) = 0
 Hubbard_alpha(1) = 0
 Hubbard_alpha(2) = 0
 Hubbard_alpha(3) = 0
/
&ELECTRONS
 mixing_beta = 0.3
/
&IONS
/
&CELL
/
K_POINTS {automatic}
 4 4 1 0 0 0
ATOMIC_SPECIES
 O0 15.9994 o_pbe_v1.01.uspp.F.UPF
 Re1 186.207 re_pbe_v1.uspp.F.UPF
 H2 1.00794 h_pbe_v1.uspp.F.UPF
ATOMIC_POSITIONS {crystal}
 O0 0.00000 0.50000 0.31931 0 0 0
 Re1 0.25000 0.50000 0.36029 0 0 0
 Re1 0.00000 0.00000 0.36029 0 0 0
 O0 0.25000 0.78000 0.36029 0 0 0
 O0 0.25000 0.22000 0.36029 0 0 0
 O0 0.00000 0.50000 0.40127 0 0 0
 O0 0.00000 0.00000 0.41245 0 0 0
 Re1 0.25000 0.00000 0.45343 0 0 0
 Re1 0.00000 0.50000 0.45343 0 0 0
 O0 0.25000 0.72000 0.45343 0 0 0
 O0 0.25000 0.28000 0.45343 0 0 0
 O0 0.00000 0.00000 0.49441 0 0 0
 O0 0.00000 0.50079 0.50470 1 1 1
 Re1 0.23087 0.49997 0.54646 1 1 1
 Re1 0.00000 0.00031 0.54752 1 1 1
 O0 0.24558 0.78166 0.54708 1 1 1
 O0 0.24603 0.21877 0.54631 1 1 1
 O0 0.00000 0.49109 0.58811 1 1 1
 O0 0.00000 0.00315 0.60129 1 1 1
 Re1 0.27428 -0.00143 0.64081 1 1 1
 Re1 0.00000 0.49884 0.63778 1 1 1
 O0 0.24687 0.71676 0.63801 1 1 1
 O0 0.25054 0.28236 0.64146 1 1 1
 O0 0.00000 -0.00666 0.67430 1 1 1
 O0 0.50000 0.50000 0.31931 0 0 0
 Re1 0.75000 0.50000 0.36029 0 0 0
 Re1 0.50000 0.00000 0.36029 0 0 0
 O0 0.75000 0.78000 0.36029 0 0 0
 O0 0.75000 0.22000 0.36029 0 0 0
 O0 0.50000 0.50000 0.40127 0 0 0
 O0 0.50000 0.00000 0.41245 0 0 0
 Re1 0.75000 0.00000 0.45343 0 0 0
 Re1 0.50000 0.50000 0.45343 0 0 0
 O0 0.75000 0.72000 0.45343 0 0 0
 O0 0.75000 0.28000 0.45343 0 0 0
 O0 0.50000 0.00000 0.49441 0 0 0
 O0 0.50000 0.50126 0.50865 1 1 1
 Re1 0.76913 0.49997 0.54646 1 1 1
 Re1 0.50000 0.00085 0.54649 1 1 1
 O0 0.75442 0.78166 0.54708 1 1 1
 O0 0.75397 0.21877 0.54631 1 1 1
 O0 0.50000 0.49806 0.58369 1 1 1
 O0 0.50000 0.00503 0.59788 1 1 1
 Re1 0.72572 -0.00143 0.64081 1 1 1
 Re1 0.50000 0.50018 0.64103 1 1 1
 O0 0.75313 0.71676 0.63801 1 1 1
 O0 0.74946 0.28236 0.64146 1 1 1
 O0 0.50000 -0.01737 0.68104 1 1 1
 O0 0.50000 0.52596 0.68856 1 1 1
 O0 0.50000 0.32359 0.71247 1 1 1
 H2 0.50000 0.38966 0.73559 1 1 1
CELL_PARAMETERS {angstrom}
 5.36 0.0 0.0
 0.0 7.00035713375 0.0
 0.0 0.0 37.5806928395
