&CONTROL
 calculation = 'relax'
 tstress = .True.
 tprnfor = .True.
 disk_io = 'none'
 pseudo_dir = '/home/camp/zhonxu/pseudo'
/
&SYSTEM
 ibrav = 0
 nat = 33
 ntyp = 3
 nbnd = 367
 starting_magnetization(1) = 0
 starting_magnetization(2) = 0
 starting_magnetization(3) = 0
 ecutwfc = 40
 ecutrho = 500
 occupations = 'smearing'
 degauss = 0.01
 smearing = 'mp'
 nspin = 1
 lda_plus_u = .True.
 Hubbard_U(1) = 0
 Hubbard_U(2) = 0.5
 Hubbard_U(3) = 0
 Hubbard_alpha(1) = 0
 Hubbard_alpha(2) = 0
 Hubbard_alpha(3) = 0
 U_projection_type = 'atomic'
/
&ELECTRONS
 mixing_beta = 0.3
/
&IONS
/
&CELL
/
K_POINTS {automatic}
 4 4 1 0 0 0
ATOMIC_SPECIES
 O0 15.9994 o_pbe_v1.01.uspp.F.UPF
 Ru1 101.07 ru_pbe_v1.uspp.F.UPF
 H2 1.00794 h_pbe_v1.uspp.F.UPF
ATOMIC_POSITIONS {crystal}
 O0 0.00000 0.00000 0.37753 0 0 1
 O0 0.00000 0.50000 0.40492 0 0 1
 Ru1 0.25000 0.50000 0.45525 0 0 1
 Ru1 0.00000 0.00000 0.45145 0 0 1
 O0 0.25000 0.81000 0.45214 0 0 1
 O0 0.25000 0.19000 0.45222 0 0 1
 O0 0.00000 0.50000 0.49963 0 0 1
 O0 0.00000 0.00000 0.52537 0 0 1
 Ru1 0.25000 0.00000 0.57569 0 0 1
 Ru1 0.00000 0.50000 0.57044 0 0 1
 O0 0.25000 0.69000 0.57546 0 0 1
 O0 0.25000 0.31000 0.57725 0 0 1
 O0 0.00000 0.00000 0.61773 0 0 1
 O0 0.50000 0.00000 0.37764 0 0 1
 O0 0.50000 0.50000 0.40433 0 0 1
 Ru1 0.75000 0.50000 0.45526 0 0 1
 Ru1 0.50000 0.00000 0.45166 0 0 1
 O0 0.75000 0.81000 0.45216 0 0 1
 O0 0.75000 0.19000 0.45222 0 0 1
 O0 0.50000 0.50000 0.50211 0 0 1
 O0 0.50000 0.00000 0.52546 0 0 1
 Ru1 0.75000 0.00000 0.57571 0 0 1
 Ru1 0.50000 0.50000 0.57830 0 0 1
 O0 0.75000 0.69000 0.57547 0 0 1
 O0 0.75000 0.31000 0.57722 0 0 1
 O0 0.50000 0.00000 0.61540 0 0 1
 H2 -0.00037 0.62423 0.38271 1 1 1
 H2 0.49973 0.62792 0.38335 1 1 1
 H2 0.14623 0.02920 0.36509 1 1 1
 H2 0.64574 0.03053 0.36511 1 1 1
 O0 0.50007 0.52751 0.65096 1 1 1
 O0 0.49999 0.33292 0.67936 1 1 1
 H2 0.49996 0.39058 0.71402 1 1 1
CELL_PARAMETERS {angstrom}
 6.24 0.0 0.0
 0.0 6.40638743755 0.0
 0.0 0.0 26.4063874376
