&CONTROL
 calculation = 'relax'
 disk_io = 'none'
 pseudo_dir = '/home/camp/zhonxu/pseudo'
/
&SYSTEM
 ibrav = 0
 nat = 32
 ntyp = 3
 nbnd = 370
 starting_magnetization(1) = 0
 starting_magnetization(2) = 0
 starting_magnetization(3) = 0
 ecutwfc = 40
 ecutrho = 500
 occupations = 'smearing'
 degauss = 0.01
 smearing = 'mp'
 nspin = 1
 Hubbard_U(1) = 0
 Hubbard_U(2) = 0
 Hubbard_U(3) = 0
 Hubbard_alpha(1) = 0
 Hubbard_alpha(2) = 0
 Hubbard_alpha(3) = 0
/
&ELECTRONS
 mixing_beta = 0.3
/
&IONS
/
&CELL
/
K_POINTS {automatic}
 4 4 1 0 0 0
ATOMIC_SPECIES
 O0 15.9994 o_pbe_v1.01.uspp.F.UPF
 Pt1 195.08 pt_pbe_v1.uspp.F.UPF
 H2 1.00794 h_pbe_v1.uspp.F.UPF
ATOMIC_POSITIONS {crystal}
 O0 0.00000 0.00000 0.37773 0 0 1
 O0 0.00000 0.50000 0.40126 0 0 1
 Pt1 0.25000 0.50000 0.45093 0 0 1
 Pt1 0.00000 0.00000 0.45264 0 0 1
 O0 0.25000 0.81000 0.44345 0 0 1
 O0 0.25000 0.19000 0.45967 0 0 1
 O0 0.00000 0.50000 0.49659 0 0 1
 O0 0.00000 0.00000 0.52942 0 0 1
 Pt1 0.25000 0.00000 0.57581 0 0 1
 Pt1 0.00000 0.50000 0.57474 0 0 1
 O0 0.25000 0.69000 0.56945 0 0 1
 O0 0.25000 0.31000 0.58464 0 0 1
 O0 0.00000 0.00000 0.62115 0 0 1
 O0 0.50000 0.00000 0.37769 0 0 1
 O0 0.50000 0.50000 0.40073 0 0 1
 Pt1 0.75000 0.50000 0.45091 0 0 1
 Pt1 0.50000 0.00000 0.45262 0 0 1
 O0 0.75000 0.81000 0.44338 0 0 1
 O0 0.75000 0.19000 0.45967 0 0 1
 O0 0.50000 0.50000 0.49737 0 0 1
 O0 0.50000 0.00000 0.52946 0 0 1
 Pt1 0.75000 0.00000 0.57579 0 0 1
 Pt1 0.50000 0.50000 0.57630 0 0 1
 O0 0.75000 0.69000 0.56921 0 0 1
 O0 0.75000 0.31000 0.58432 0 0 1
 O0 0.50000 0.00000 0.62125 0 0 1
 H2 0.00010 0.64015 0.38566 1 1 1
 H2 0.49996 0.64012 0.38519 1 1 1
 H2 0.14326 0.03403 0.36766 1 1 1
 H2 0.64323 0.03468 0.36770 1 1 1
 O0 0.50044 0.52499 0.64982 1 1 1
 H2 0.48958 0.38202 0.66240 1 1 1
CELL_PARAMETERS {angstrom}
 6.46 0.0 0.0
 0.0 6.49124025129 0.0
 0.0 0.0 26.4912402513
