&CONTROL
 calculation = 'relax'
 tstress = .True.
 tprnfor = .True.
 disk_io = 'none'
 pseudo_dir = '/home/camp/zhonxu/pseudo'
/
&SYSTEM
 ibrav = 0
 nat = 50
 ntyp = 3
 nbnd = 562
 starting_magnetization(1) = 0
 starting_magnetization(2) = 0
 starting_magnetization(3) = 0
 ecutwfc = 40
 ecutrho = 500
 occupations = 'smearing'
 degauss = 0.01
 smearing = 'mp'
 nspin = 1
 Hubbard_U(1) = 0
 Hubbard_U(2) = 0
 Hubbard_U(3) = 0
 Hubbard_alpha(1) = 0
 Hubbard_alpha(2) = 0
 Hubbard_alpha(3) = 0
/
&ELECTRONS
 mixing_beta = 0.3
/
&IONS
/
&CELL
/
K_POINTS {automatic}
 4 4 1 0 0 0
ATOMIC_SPECIES
 O0 15.9994 o_pbe_v1.01.uspp.F.UPF
 Ti1 47.88 ti_pbe_v1.uspp.F.UPF
 H2 1.00794 h_pbe_v1.uspp.F.UPF
ATOMIC_POSITIONS {crystal}
 O0 0.00000 0.50000 0.33001 0 0 0
 Ti1 0.25000 0.50000 0.36437 0 0 0
 Ti1 0.00000 0.00000 0.36437 0 0 0
 O0 0.25000 0.81000 0.36437 0 0 0
 O0 0.25000 0.19000 0.36437 0 0 0
 O0 0.00000 0.50000 0.39873 0 0 0
 O0 0.00000 0.00000 0.42043 0 0 0
 Ti1 0.25000 0.00000 0.45479 0 0 0
 Ti1 0.00000 0.50000 0.45479 0 0 0
 O0 0.25000 0.69000 0.45479 0 0 0
 O0 0.25000 0.31000 0.45479 0 0 0
 O0 0.00000 0.00000 0.48915 0 0 0
 O0 0.00238 0.50000 0.50959 1 1 1
 Ti1 0.24954 0.50000 0.54313 1 1 1
 Ti1 -0.00095 0.00000 0.55008 1 1 1
 O0 0.24918 0.80360 0.54564 1 1 1
 O0 0.24918 0.19640 0.54564 1 1 1
 O0 0.00017 0.50000 0.58043 1 1 1
 O0 0.00089 0.00000 0.60094 1 1 1
 Ti1 0.24964 0.00000 0.64260 1 1 1
 Ti1 0.00006 0.50000 0.63015 1 1 1
 O0 0.24567 0.68959 0.64063 1 1 1
 O0 0.24567 0.31041 0.64063 1 1 1
 O0 0.00064 0.00000 0.67226 1 1 1
 O0 0.50000 0.50000 0.33001 0 0 0
 Ti1 0.75000 0.50000 0.36437 0 0 0
 Ti1 0.50000 0.00000 0.36437 0 0 0
 O0 0.75000 0.81000 0.36437 0 0 0
 O0 0.75000 0.19000 0.36437 0 0 0
 O0 0.50000 0.50000 0.39873 0 0 0
 O0 0.50000 0.00000 0.42043 0 0 0
 Ti1 0.75000 0.00000 0.45479 0 0 0
 Ti1 0.50000 0.50000 0.45479 0 0 0
 O0 0.75000 0.69000 0.45479 0 0 0
 O0 0.75000 0.31000 0.45479 0 0 0
 O0 0.50000 0.00000 0.48915 0 0 0
 O0 0.49961 0.50000 0.50953 1 1 1
 Ti1 0.73166 0.50000 0.54661 1 1 1
 Ti1 0.49939 0.00000 0.55057 1 1 1
 O0 0.75015 0.80378 0.54585 1 1 1
 O0 0.75015 0.19622 0.54585 1 1 1
 O0 0.49887 0.50000 0.57944 1 1 1
 O0 0.49998 0.00000 0.60105 1 1 1
 Ti1 0.75082 0.00000 0.64280 1 1 1
 Ti1 0.50018 0.50000 0.64846 1 1 1
 O0 0.75608 0.69011 0.64018 1 1 1
 O0 0.75608 0.30989 0.64018 1 1 1
 O0 0.50006 0.00000 0.67203 1 1 1
 O0 0.50708 0.50000 0.69790 1 1 1
 H2 0.38130 0.50000 0.71525 1 1 1
CELL_PARAMETERS {angstrom}
 5.94 0.0 0.0
 0.0 6.57609306503 0.0
 0.0 0.0 36.3630549623
