&CONTROL
 calculation = 'relax'
 tstress = .True.
 tprnfor = .True.
 disk_io = 'none'
 pseudo_dir = '/home/camp/zhonxu/pseudo'
/
&SYSTEM
 ibrav = 0
 nat = 33
 ntyp = 3
 nbnd = 367
 starting_magnetization(1) = 0
 starting_magnetization(2) = 0
 starting_magnetization(3) = 0
 ecutwfc = 40
 ecutrho = 500
 occupations = 'smearing'
 degauss = 0.01
 smearing = 'mp'
 nspin = 1
 lda_plus_u = .True.
 Hubbard_U(1) = 0
 Hubbard_U(2) = 1.5
 Hubbard_U(3) = 0
 Hubbard_alpha(1) = 0
 Hubbard_alpha(2) = 0
 Hubbard_alpha(3) = 0
 U_projection_type = 'atomic'
/
&ELECTRONS
/
&IONS
/
&CELL
/
K_POINTS {automatic}
 4 4 1 0 0 0
ATOMIC_SPECIES
 O0 15.9994 o_pbe_v1.01.uspp.F.UPF
 Re1 186.207 re_pbe_v1.uspp.F.UPF
 H2 1.00794 h_pbe_v1.uspp.F.UPF
ATOMIC_POSITIONS {crystal}
 O0 0.00000 0.00000 0.36970 0 0 1
 O0 0.00000 0.50000 0.38221 0 0 1
 Re1 0.25000 0.50000 0.44213 0 0 1
 Re1 0.00000 0.00000 0.44244 0 0 1
 O0 0.25000 0.78000 0.44106 0 0 1
 O0 0.25000 0.22000 0.44092 0 0 1
 O0 0.00000 0.50000 0.49771 0 0 1
 O0 0.00000 0.00000 0.51405 0 0 1
 Re1 0.25000 0.00000 0.57360 0 0 1
 Re1 0.00000 0.50000 0.56742 0 0 1
 O0 0.25000 0.72000 0.57087 0 0 1
 O0 0.25000 0.28000 0.57317 0 0 1
 O0 0.00000 0.00000 0.62565 0 0 1
 O0 0.50000 0.00000 0.36973 0 0 1
 O0 0.50000 0.50000 0.38254 0 0 1
 Re1 0.75000 0.50000 0.44213 0 0 1
 Re1 0.50000 0.00000 0.44218 0 0 1
 O0 0.75000 0.78000 0.44099 0 0 1
 O0 0.75000 0.22000 0.44100 0 0 1
 O0 0.50000 0.50000 0.49800 0 0 1
 O0 0.50000 0.00000 0.51415 0 0 1
 Re1 0.75000 0.00000 0.57348 0 0 1
 Re1 0.50000 0.50000 0.57607 0 0 1
 O0 0.75000 0.72000 0.57087 0 0 1
 O0 0.75000 0.28000 0.57316 0 0 1
 O0 0.50000 0.00000 0.62466 0 0 1
 H2 -0.00021 0.62555 0.36561 1 1 1
 H2 0.49964 0.62380 0.36505 1 1 1
 H2 0.16784 0.02517 0.35509 1 1 1
 H2 0.66975 0.02230 0.35544 1 1 1
 O0 0.49963 0.52654 0.64136 1 1 1
 O0 0.50029 0.32069 0.68074 1 1 1
 H2 0.49995 0.39635 0.71155 1 1 1
CELL_PARAMETERS {angstrom}
 5.36 0.0 0.0
 0.0 7.00035713375 0.0
 0.0 0.0 27.0003571337
