&CONTROL
 calculation = 'relax'
 tstress = .True.
 tprnfor = .True.
 disk_io = 'none'
 pseudo_dir = '/home/camp/zhonxu/pseudo'
/
&SYSTEM
 ibrav = 0
 nat = 33
 ntyp = 3
 nbnd = 367
 starting_magnetization(1) = 0
 starting_magnetization(2) = 0
 starting_magnetization(3) = 0
 ecutwfc = 40
 ecutrho = 500
 occupations = 'smearing'
 degauss = 0.01
 smearing = 'mp'
 nspin = 1
 lda_plus_u = .True.
 Hubbard_U(1) = 0
 Hubbard_U(2) = 7.5
 Hubbard_U(3) = 0
 Hubbard_alpha(1) = 0
 Hubbard_alpha(2) = 0
 Hubbard_alpha(3) = 0
 U_projection_type = 'atomic'
/
&ELECTRONS
/
&IONS
/
&CELL
/
K_POINTS {automatic}
 4 4 1 0 0 0
ATOMIC_SPECIES
 O0 15.9994 o_pbe_v1.01.uspp.F.UPF
 Re1 186.207 re_pbe_v1.uspp.F.UPF
 H2 1.00794 h_pbe_v1.uspp.F.UPF
ATOMIC_POSITIONS {crystal}
 O0 0.00000 0.00000 0.37437 0 0 1
 O0 0.00000 0.50000 0.38663 0 0 1
 Re1 0.25000 0.50000 0.44547 0 0 1
 Re1 0.00000 0.00000 0.44599 0 0 1
 O0 0.25000 0.78000 0.44381 0 0 1
 O0 0.25000 0.22000 0.44399 0 0 1
 O0 0.00000 0.50000 0.50057 0 0 1
 O0 0.00000 0.00000 0.51613 0 0 1
 Re1 0.25000 0.00000 0.57719 0 0 1
 Re1 0.00000 0.50000 0.57492 0 0 1
 O0 0.25000 0.72000 0.57244 0 0 1
 O0 0.25000 0.28000 0.57087 0 0 1
 O0 0.00000 0.00000 0.62725 0 0 1
 O0 0.50000 0.00000 0.37457 0 0 1
 O0 0.50000 0.50000 0.38607 0 0 1
 Re1 0.75000 0.50000 0.44535 0 0 1
 Re1 0.50000 0.00000 0.44613 0 0 1
 O0 0.75000 0.78000 0.44387 0 0 1
 O0 0.75000 0.22000 0.44395 0 0 1
 O0 0.50000 0.50000 0.50236 0 0 1
 O0 0.50000 0.00000 0.51605 0 0 1
 Re1 0.75000 0.00000 0.57519 0 0 1
 Re1 0.50000 0.50000 0.57712 0 0 1
 O0 0.75000 0.72000 0.57247 0 0 1
 O0 0.75000 0.28000 0.57108 0 0 1
 O0 0.50000 0.00000 0.62778 0 0 1
 H2 -0.00034 0.62342 0.36909 1 1 1
 H2 0.49967 0.62265 0.36820 1 1 1
 H2 0.16974 0.01935 0.35962 1 1 1
 H2 0.67008 0.02003 0.36001 1 1 1
 O0 0.49438 0.48770 0.64019 1 1 1
 O0 0.99184 0.48755 0.64469 1 1 1
 H2 1.15741 0.47861 0.66131 1 1 1
CELL_PARAMETERS {angstrom}
 5.36 0.0 0.0
 0.0 7.00035713375 0.0
 0.0 0.0 27.0003571337
