&CONTROL
 calculation = 'relax'
 disk_io = 'none'
 pseudo_dir = '/home/camp/zhonxu/pseudo'
/
&SYSTEM
 ibrav = 0
 nat = 31
 ntyp = 3
 nbnd = 309
 starting_magnetization(1) = 0
 starting_magnetization(2) = 0
 starting_magnetization(3) = 0
 ecutwfc = 40
 ecutrho = 500
 occupations = 'smearing'
 degauss = 0.01
 smearing = 'mp'
 nspin = 1
 Hubbard_U(1) = 0
 Hubbard_U(2) = 0
 Hubbard_U(3) = 0
 Hubbard_alpha(1) = 0
 Hubbard_alpha(2) = 0
 Hubbard_alpha(3) = 0
/
&ELECTRONS
 mixing_beta = 0.3
/
&IONS
/
&CELL
/
K_POINTS {automatic}
 4 4 1 0 0 0
ATOMIC_SPECIES
 O0 15.9994 o_pbe_v1.01.uspp.F.UPF
 Ti1 47.88 ti_pbe_v1.uspp.F.UPF
 H2 1.00794 h_pbe_v1.uspp.F.UPF
ATOMIC_POSITIONS {crystal}
 O0 0.00000 0.00000 0.37811 0 0 1
 O0 0.00000 0.50000 0.39770 0 0 1
 Ti1 0.25000 0.50000 0.45004 0 0 1
 Ti1 0.00000 0.00000 0.45260 0 0 1
 O0 0.25000 0.81000 0.44989 0 0 1
 O0 0.25000 0.19000 0.45051 0 0 1
 O0 0.00000 0.50000 0.49654 0 0 1
 O0 0.00000 0.00000 0.52513 0 0 1
 Ti1 0.25000 0.00000 0.58119 0 0 1
 Ti1 0.00000 0.50000 0.56703 0 0 1
 O0 0.25000 0.69000 0.57940 0 0 1
 O0 0.25000 0.31000 0.57919 0 0 1
 O0 0.00000 0.00000 0.62197 0 0 1
 O0 0.50000 0.00000 0.37955 0 0 1
 O0 0.50000 0.50000 0.39737 0 0 1
 Ti1 0.75000 0.50000 0.45005 0 0 1
 Ti1 0.50000 0.00000 0.45401 0 0 1
 O0 0.75000 0.81000 0.44973 0 0 1
 O0 0.75000 0.19000 0.45069 0 0 1
 O0 0.50000 0.50000 0.49214 0 0 1
 O0 0.50000 0.00000 0.52601 0 0 1
 Ti1 0.75000 0.00000 0.58118 0 0 1
 Ti1 0.50000 0.50000 0.59643 0 0 1
 O0 0.75000 0.69000 0.57931 0 0 1
 O0 0.75000 0.31000 0.57931 0 0 1
 O0 0.50000 0.00000 0.62159 0 0 1
 H2 -0.00075 0.62411 0.37665 1 1 1
 H2 0.49917 0.62239 0.37587 1 1 1
 H2 0.14930 0.02868 0.36324 1 1 1
 H2 0.64855 0.02922 0.36446 1 1 1
 O0 0.49972 0.50000 0.65916 1 1 1
CELL_PARAMETERS {angstrom}
 5.94 0.0 0.0
 0.0 6.57609306503 0.0
 0.0 0.0 26.576093065
