&CONTROL
 calculation = 'relax'
 disk_io = 'none'
 pseudo_dir = '/home/camp/zhonxu/pseudo'
/
&SYSTEM
 ibrav = 0
 nat = 32
 ntyp = 3
 nbnd = 358
 starting_magnetization(1) = 0
 starting_magnetization(2) = 0
 starting_magnetization(3) = 0
 ecutwfc = 40
 ecutrho = 500
 occupations = 'smearing'
 degauss = 0.01
 smearing = 'mp'
 nspin = 1
 lda_plus_u = .True.
 Hubbard_U(1) = 0
 Hubbard_U(2) = 6
 Hubbard_U(3) = 0
 Hubbard_alpha(1) = 0
 Hubbard_alpha(2) = 0
 Hubbard_alpha(3) = 0
 U_projection_type = 'atomic'
/
&ELECTRONS
/
&IONS
/
&CELL
/
K_POINTS {automatic}
 4 4 1 0 0 0
ATOMIC_SPECIES
 O0 15.9994 o_pbe_v1.01.uspp.F.UPF
 Ir1 192.22 ir_pbe_v1.uspp.F.UPF
 H2 1.00794 h_pbe_v1.uspp.F.UPF
ATOMIC_POSITIONS {crystal}
 O0 0.00000 0.00000 0.37830 0 0 1
 O0 0.00000 0.50000 0.40258 0 0 1
 Ir1 0.25000 0.50000 0.45266 0 0 1
 Ir1 0.00000 0.00000 0.45313 0 0 1
 O0 0.25000 0.81000 0.45279 0 0 1
 O0 0.25000 0.19000 0.45250 0 0 1
 O0 0.00000 0.50000 0.49824 0 0 1
 O0 0.00000 0.00000 0.52881 0 0 1
 Ir1 0.25000 0.00000 0.57596 0 0 1
 Ir1 0.00000 0.50000 0.57166 0 0 1
 O0 0.25000 0.69000 0.57590 0 0 1
 O0 0.25000 0.31000 0.57598 0 0 1
 O0 0.00000 0.00000 0.62057 0 0 1
 O0 0.50000 0.00000 0.37805 0 0 1
 O0 0.50000 0.50000 0.40196 0 0 1
 Ir1 0.75000 0.50000 0.45268 0 0 1
 Ir1 0.50000 0.00000 0.45298 0 0 1
 O0 0.75000 0.81000 0.45281 0 0 1
 O0 0.75000 0.19000 0.45250 0 0 1
 O0 0.50000 0.50000 0.49946 0 0 1
 O0 0.50000 0.00000 0.52873 0 0 1
 Ir1 0.75000 0.00000 0.57593 0 0 1
 Ir1 0.50000 0.50000 0.57559 0 0 1
 O0 0.75000 0.69000 0.57523 0 0 1
 O0 0.75000 0.31000 0.57533 0 0 1
 O0 0.50000 0.00000 0.62012 0 0 1
 H2 -0.00004 0.63391 0.38376 1 1 1
 H2 0.50001 0.63692 0.38439 1 1 1
 H2 0.14370 0.03367 0.36676 1 1 1
 H2 0.64317 0.03540 0.36649 1 1 1
 O0 0.51569 0.50000 0.64862 1 1 1
 H2 0.37441 0.50033 0.66381 1 1 1
CELL_PARAMETERS {angstrom}
 6.36 0.0 0.0
 0.0 6.42052957317 0.0
 0.0 0.0 26.4205295732
