&CONTROL
 calculation = 'relax'
 tprnfor = .True.
 outdir = '/scratch/1087944.gilgamesh.cheme.cmu.edu'
 disk_io = 'none'
 pseudo_dir = '/home-research/zhongnanxu/pseudopotentials/gbrv_espresso_pseudo_v1.01'
/
&SYSTEM
 ibrav = 0
 nat = 33
 ntyp = 3
 nbnd = 355
 starting_magnetization(1) = 0
 starting_magnetization(2) = 0
 starting_magnetization(3) = 0
 ecutwfc = 40
 ecutrho = 500
 occupations = 'smearing'
 degauss = 0.01
 smearing = 'mp'
 nspin = 1
 lda_plus_u = .True.
 Hubbard_U(1) = 0
 Hubbard_U(2) = 8
 Hubbard_U(3) = 0
 Hubbard_alpha(1) = 0
 Hubbard_alpha(2) = 0
 Hubbard_alpha(3) = 0
 U_projection_type = 'atomic'
/
&ELECTRONS
 mixing_beta = 0.3
/
&IONS
/
&CELL
/
K_POINTS {automatic}
 4 4 1 0 0 0
ATOMIC_SPECIES
 O0 15.9994 o_pbe_v1.01.uspp.F.UPF
 Mo1 95.94 mo_pbe_v1.uspp.F.UPF
 H2 1.00794 h_pbe_v1.uspp.F.UPF
ATOMIC_POSITIONS {crystal}
 O0 0.00000 0.00000 0.37107 0 0 1
 O0 0.00000 0.50000 0.38361 0 0 1
 Mo1 0.25000 0.50000 0.44150 0 0 1
 Mo1 0.00000 0.00000 0.44231 0 0 1
 O0 0.25000 0.78000 0.44235 0 0 1
 O0 0.25000 0.22000 0.44259 0 0 1
 O0 0.00000 0.50000 0.49602 0 0 1
 O0 0.00000 0.00000 0.51465 0 0 1
 Mo1 0.25000 0.00000 0.57020 0 0 1
 Mo1 0.00000 0.50000 0.56939 0 0 1
 O0 0.25000 0.72000 0.57212 0 0 1
 O0 0.25000 0.28000 0.57285 0 0 1
 O0 0.00000 0.00000 0.62310 0 0 1
 O0 0.50000 0.00000 0.36800 0 0 1
 O0 0.50000 0.50000 0.38351 0 0 1
 Mo1 0.75000 0.50000 0.44149 0 0 1
 Mo1 0.50000 0.00000 0.44031 0 0 1
 O0 0.75000 0.78000 0.44279 0 0 1
 O0 0.75000 0.22000 0.44238 0 0 1
 O0 0.50000 0.50000 0.50163 0 0 1
 O0 0.50000 0.00000 0.51627 0 0 1
 Mo1 0.75000 0.00000 0.57588 0 0 1
 Mo1 0.50000 0.50000 0.57097 0 0 1
 O0 0.75000 0.72000 0.57232 0 0 1
 O0 0.75000 0.28000 0.57303 0 0 1
 O0 0.50000 0.00000 0.62353 0 0 1
 H2 -0.00066 0.62253 0.36602 1 1 1
 H2 0.50025 0.60567 0.35985 1 1 1
 H2 0.16519 0.02659 0.35644 1 1 1
 H2 0.65784 0.02744 0.35163 1 1 1
 O0 0.50021 0.51287 0.64337 0 1 1
 O0 0.49994 0.35400 0.67764 0 1 1
 H2 0.50001 0.42686 0.70892 0 1 1
CELL_PARAMETERS {angstrom}
 5.46 0.0 0.0
 0.0 7.00035713375 0.0
 0.0 0.0 27.0003571337
