&CONTROL
 calculation = 'relax'
 disk_io = 'none'
 pseudo_dir = '/home/camp/zhonxu/pseudo'
/
&SYSTEM
 ibrav = 0
 nat = 48
 ntyp = 2
 nbnd = 600
 starting_magnetization(1) = 0
 starting_magnetization(2) = 0.6
 ecutwfc = 40
 ecutrho = 500
 occupations = 'smearing'
 degauss = 0.01
 smearing = 'mp'
 nspin = 2
 Hubbard_U(1) = 0
 Hubbard_U(2) = 0
 Hubbard_alpha(1) = 0
 Hubbard_alpha(2) = 0
/
&ELECTRONS
 mixing_beta = 0.3
/
&IONS
/
&CELL
/
K_POINTS {automatic}
 4 4 1 0 0 0
ATOMIC_SPECIES
 O0 15.9994 o_pbe_v1.01.uspp.F.UPF
 Cr1 51.996 cr_pbe_v1.uspp.F.UPF
ATOMIC_POSITIONS {crystal}
 O0 0.00000 0.50000 0.33549 0 0 0
 Cr1 0.25000 0.50000 0.37012 0 0 0
 Cr1 0.00000 0.00000 0.37012 0 0 0
 O0 0.25000 0.80000 0.37012 0 0 0
 O0 0.25000 0.20000 0.37012 0 0 0
 O0 0.00000 0.50000 0.40475 0 0 0
 O0 0.00000 0.00000 0.42207 0 0 0
 Cr1 0.25000 0.00000 0.45671 0 0 0
 Cr1 0.00000 0.50000 0.45671 0 0 0
 O0 0.25000 0.70000 0.45671 0 0 0
 O0 0.25000 0.30000 0.45671 0 0 0
 O0 0.00000 0.00000 0.49134 0 0 0
 O0 0.00000 0.50000 0.50997 1 1 1
 Cr1 0.25000 0.50000 0.54339 1 1 1
 Cr1 0.00000 0.00000 0.54717 1 1 1
 O0 0.25000 0.80283 0.54555 1 1 1
 O0 0.25000 0.19717 0.54555 1 1 1
 O0 0.00000 0.50000 0.57963 1 1 1
 O0 0.00000 0.00000 0.59964 1 1 1
 Cr1 0.25000 0.00000 0.63821 1 1 1
 Cr1 0.00000 0.50000 0.62908 1 1 1
 O0 0.25000 0.69015 0.63764 1 1 1
 O0 0.25000 0.30985 0.63764 1 1 1
 O0 0.00000 0.00000 0.66765 1 1 1
 O0 0.50000 0.50000 0.33549 0 0 0
 Cr1 0.75000 0.50000 0.37012 0 0 0
 Cr1 0.50000 0.00000 0.37012 0 0 0
 O0 0.75000 0.80000 0.37012 0 0 0
 O0 0.75000 0.20000 0.37012 0 0 0
 O0 0.50000 0.50000 0.40475 0 0 0
 O0 0.50000 0.00000 0.42207 0 0 0
 Cr1 0.75000 0.00000 0.45671 0 0 0
 Cr1 0.50000 0.50000 0.45671 0 0 0
 O0 0.75000 0.70000 0.45671 0 0 0
 O0 0.75000 0.30000 0.45671 0 0 0
 O0 0.50000 0.00000 0.49134 0 0 0
 O0 0.50000 0.50000 0.50997 1 1 1
 Cr1 0.75000 0.50000 0.54339 1 1 1
 Cr1 0.50000 0.00000 0.54717 1 1 1
 O0 0.75000 0.80283 0.54555 1 1 1
 O0 0.75000 0.19717 0.54555 1 1 1
 O0 0.50000 0.50000 0.57963 1 1 1
 O0 0.50000 0.00000 0.59964 1 1 1
 Cr1 0.75000 0.00000 0.63821 1 1 1
 Cr1 0.50000 0.50000 0.62908 1 1 1
 O0 0.75000 0.69015 0.63764 1 1 1
 O0 0.75000 0.30985 0.63764 1 1 1
 O0 0.50000 0.00000 0.66765 1 1 1
CELL_PARAMETERS {angstrom}
 5.8 0.0 0.0
 0.0 6.19425540319 0.0
 0.0 0.0 35.7690852661
