&CONTROL
 calculation = 'relax'
 disk_io = 'none'
 pseudo_dir = '/home/camp/zhonxu/pseudo'
/
&SYSTEM
 ibrav = 0
 nat = 48
 ntyp = 2
 nbnd = 624
 starting_magnetization(1) = 0
 starting_magnetization(2) = 0
 ecutwfc = 40
 ecutrho = 500
 occupations = 'smearing'
 degauss = 0.01
 smearing = 'mp'
 nspin = 1
 Hubbard_U(1) = 0
 Hubbard_U(2) = 0
 Hubbard_alpha(1) = 0
 Hubbard_alpha(2) = 0
/
&ELECTRONS
 mixing_beta = 0.3
/
&IONS
/
&CELL
/
K_POINTS {automatic}
 4 4 1 0 0 0
ATOMIC_SPECIES
 O0 15.9994 o_pbe_v1.01.uspp.F.UPF
 Mo1 95.94 mo_pbe_v1.uspp.F.UPF
ATOMIC_POSITIONS {crystal}
 O0 0.00000 0.50000 0.31931 0 0 0
 Mo1 0.25000 0.50000 0.36029 0 0 0
 Mo1 0.00000 0.00000 0.36029 0 0 0
 O0 0.25000 0.78000 0.36029 0 0 0
 O0 0.25000 0.22000 0.36029 0 0 0
 O0 0.00000 0.50000 0.40127 0 0 0
 O0 0.00000 0.00000 0.41245 0 0 0
 Mo1 0.25000 0.00000 0.45343 0 0 0
 Mo1 0.00000 0.50000 0.45343 0 0 0
 O0 0.25000 0.72000 0.45343 0 0 0
 O0 0.25000 0.28000 0.45343 0 0 0
 O0 0.00000 0.00000 0.49441 0 0 0
 O0 0.00000 0.50000 0.50540 1 1 1
 Mo1 0.24781 0.50000 0.54484 1 1 1
 Mo1 0.00000 0.00000 0.54971 1 1 1
 O0 0.24983 0.78353 0.54725 1 1 1
 O0 0.24983 0.21647 0.54725 1 1 1
 O0 0.00000 0.50000 0.58602 1 1 1
 O0 0.00000 0.00000 0.60326 1 1 1
 Mo1 0.25840 0.00000 0.64474 1 1 1
 Mo1 0.00000 0.50000 0.63496 1 1 1
 O0 0.25088 0.70896 0.64344 1 1 1
 O0 0.25088 0.29104 0.64344 1 1 1
 O0 0.00000 0.00000 0.67999 1 1 1
 O0 0.50000 0.50000 0.31931 0 0 0
 Mo1 0.75000 0.50000 0.36029 0 0 0
 Mo1 0.50000 0.00000 0.36029 0 0 0
 O0 0.75000 0.78000 0.36029 0 0 0
 O0 0.75000 0.22000 0.36029 0 0 0
 O0 0.50000 0.50000 0.40127 0 0 0
 O0 0.50000 0.00000 0.41245 0 0 0
 Mo1 0.75000 0.00000 0.45343 0 0 0
 Mo1 0.50000 0.50000 0.45343 0 0 0
 O0 0.75000 0.72000 0.45343 0 0 0
 O0 0.75000 0.28000 0.45343 0 0 0
 O0 0.50000 0.00000 0.49441 0 0 0
 O0 0.50000 0.50000 0.50572 1 1 1
 Mo1 0.75219 0.50000 0.54484 1 1 1
 Mo1 0.50000 0.00000 0.54904 1 1 1
 O0 0.75017 0.78353 0.54725 1 1 1
 O0 0.75017 0.21647 0.54725 1 1 1
 O0 0.50000 0.50000 0.58582 1 1 1
 O0 0.50000 0.00000 0.60279 1 1 1
 Mo1 0.74160 0.00000 0.64474 1 1 1
 Mo1 0.50000 0.50000 0.63482 1 1 1
 O0 0.74912 0.70896 0.64344 1 1 1
 O0 0.74912 0.29104 0.64344 1 1 1
 O0 0.50000 0.00000 0.68191 1 1 1
CELL_PARAMETERS {angstrom}
 5.46 0.0 0.0
 0.0 7.00035713375 0.0
 0.0 0.0 37.5806928395
