&CONTROL
 calculation = 'vc-relax'
 disk_io = 'none'
 pseudo_dir = '/home/camp/zhonxu/pseudo'
/
&SYSTEM
 ibrav = 0
 nat = 6
 ntyp = 2
 nbnd = 81
 starting_magnetization(1) = 0.6
 starting_magnetization(2) = 0
 ecutwfc = 40
 ecutrho = 500
 occupations = 'smearing'
 degauss = 0.01
 smearing = 'mp'
 nspin = 2
 Hubbard_U(1) = 0
 Hubbard_U(2) = 0
 Hubbard_alpha(1) = 0
 Hubbard_alpha(2) = 0
/
&ELECTRONS
 conv_thr = 7e-06
 mixing_beta = 0.3
/
&IONS
/
&CELL
 cell_dofree = 'shape'
/
K_POINTS {automatic}
 5 5 5 0 0 0
ATOMIC_SPECIES
 Re0 186.207 re_pbe_v1.uspp.F.UPF
 O1 15.9994 o_pbe_v1.01.uspp.F.UPF
ATOMIC_POSITIONS {crystal}
 Re0 0.00000 0.00000 0.00000 0 0 0
 Re0 0.50065 0.50065 0.49872 0 0 0
 O1 0.29947 0.29947 0.00001 1 1 0
 O1 -0.29923 -0.29923 -0.00001 1 1 0
 O1 0.79938 0.20069 0.49872 1 1 0
 O1 0.20069 0.79938 0.49872 1 1 0
CELL_PARAMETERS {angstrom}
 4.78947553532 -6.51466553466e-06 -4.81300234761e-05
 -6.51466553466e-06 4.78947553532 -4.81300234761e-05
 -3.11947650914e-05 -3.11947650914e-05 3.09858744232
