&CONTROL
 calculation = 'relax'
 disk_io = 'none'
 pseudo_dir = '/home/camp/zhonxu/pseudo'
/
&SYSTEM
 ibrav = 0
 nat = 32
 ntyp = 3
 nbnd = 358
 starting_magnetization(1) = 0
 starting_magnetization(2) = 0
 starting_magnetization(3) = 0
 ecutwfc = 40
 ecutrho = 500
 occupations = 'smearing'
 degauss = 0.01
 smearing = 'mp'
 nspin = 1
 Hubbard_U(1) = 0
 Hubbard_U(2) = 0
 Hubbard_U(3) = 0
 Hubbard_alpha(1) = 0
 Hubbard_alpha(2) = 0
 Hubbard_alpha(3) = 0
/
&ELECTRONS
 mixing_beta = 0.3
/
&IONS
/
&CELL
/
K_POINTS {automatic}
 4 4 1 0 0 0
ATOMIC_SPECIES
 O0 15.9994 o_pbe_v1.01.uspp.F.UPF
 Ru1 101.07 ru_pbe_v1.uspp.F.UPF
 H2 1.00794 h_pbe_v1.uspp.F.UPF
ATOMIC_POSITIONS {crystal}
 O0 0.00000 0.00000 0.37891 0 0 1
 O0 0.00000 0.50000 0.40313 0 0 1
 Ru1 0.25000 0.50000 0.45366 0 0 1
 Ru1 0.00000 0.00000 0.45305 0 0 1
 O0 0.25000 0.81000 0.45298 0 0 1
 O0 0.25000 0.19000 0.45286 0 0 1
 O0 0.00000 0.50000 0.49741 0 0 1
 O0 0.00000 0.00000 0.52719 0 0 1
 Ru1 0.25000 0.00000 0.57755 0 0 1
 Ru1 0.00000 0.50000 0.56832 0 0 1
 O0 0.25000 0.69000 0.57571 0 0 1
 O0 0.25000 0.31000 0.57564 0 0 1
 O0 0.00000 0.00000 0.61990 0 0 1
 O0 0.50000 0.00000 0.37916 0 0 1
 O0 0.50000 0.50000 0.40307 0 0 1
 Ru1 0.75000 0.50000 0.45366 0 0 1
 Ru1 0.50000 0.00000 0.45317 0 0 1
 O0 0.75000 0.81000 0.45293 0 0 1
 O0 0.75000 0.19000 0.45286 0 0 1
 O0 0.50000 0.50000 0.50170 0 0 1
 O0 0.50000 0.00000 0.52706 0 0 1
 Ru1 0.75000 0.00000 0.57763 0 0 1
 Ru1 0.50000 0.50000 0.57595 0 0 1
 O0 0.75000 0.69000 0.57539 0 0 1
 O0 0.75000 0.31000 0.57528 0 0 1
 O0 0.50000 0.00000 0.61763 0 0 1
 H2 -0.00024 0.62866 0.38238 1 1 1
 H2 0.49954 0.62410 0.38084 1 1 1
 H2 0.14582 0.03202 0.36666 1 1 1
 H2 0.64664 0.02938 0.36697 1 1 1
 O0 0.51371 0.49746 0.64857 1 1 1
 H2 0.37167 0.49624 0.66462 1 1 1
CELL_PARAMETERS {angstrom}
 6.24 0.0 0.0
 0.0 6.40638743755 0.0
 0.0 0.0 26.4063874376
