&CONTROL
 calculation = 'relax'
 disk_io = 'none'
 pseudo_dir = '/home/camp/zhonxu/pseudo'
/
&SYSTEM
 ibrav = 0
 nat = 32
 ntyp = 3
 nbnd = 358
 starting_magnetization(1) = 0
 starting_magnetization(2) = 0
 starting_magnetization(3) = 0
 ecutwfc = 40
 ecutrho = 500
 occupations = 'smearing'
 degauss = 0.01
 smearing = 'mp'
 nspin = 2
 Hubbard_U(1) = 0
 Hubbard_U(2) = 0
 Hubbard_U(3) = 0
 Hubbard_alpha(1) = 0
 Hubbard_alpha(2) = 0
 Hubbard_alpha(3) = 0
/
&ELECTRONS
 mixing_beta = 0.3
/
&IONS
/
&CELL
/
K_POINTS {automatic}
 4 4 1 0 0 0
ATOMIC_SPECIES
 O0 15.9994 o_pbe_v1.01.uspp.F.UPF
 Re1 186.207 re_pbe_v1.uspp.F.UPF
 H2 1.00794 h_pbe_v1.uspp.F.UPF
ATOMIC_POSITIONS {crystal}
 O0 0.00000 0.00000 0.37103 0 0 1
 O0 0.00000 0.50000 0.38170 0 0 1
 Re1 0.25000 0.50000 0.44138 0 0 1
 Re1 0.00000 0.00000 0.44380 0 0 1
 O0 0.25000 0.78000 0.44185 0 0 1
 O0 0.25000 0.22000 0.44176 0 0 1
 O0 0.00000 0.50000 0.49671 0 0 1
 O0 0.00000 0.00000 0.51541 0 0 1
 Re1 0.25000 0.00000 0.57522 0 0 1
 Re1 0.00000 0.50000 0.56608 0 0 1
 O0 0.25000 0.72000 0.57300 0 0 1
 O0 0.25000 0.28000 0.57304 0 0 1
 O0 0.00000 0.00000 0.62756 0 0 1
 O0 0.50000 0.00000 0.37104 0 0 1
 O0 0.50000 0.50000 0.38197 0 0 1
 Re1 0.75000 0.50000 0.44142 0 0 1
 Re1 0.50000 0.00000 0.44365 0 0 1
 O0 0.75000 0.78000 0.44181 0 0 1
 O0 0.75000 0.22000 0.44180 0 0 1
 O0 0.50000 0.50000 0.49861 0 0 1
 O0 0.50000 0.00000 0.51528 0 0 1
 Re1 0.75000 0.00000 0.57514 0 0 1
 Re1 0.50000 0.50000 0.57205 0 0 1
 O0 0.75000 0.72000 0.57208 0 0 1
 O0 0.75000 0.28000 0.57208 0 0 1
 O0 0.50000 0.00000 0.62696 0 0 1
 H2 -0.00039 0.62564 0.36508 1 1 1
 H2 0.49963 0.62466 0.36487 1 1 1
 H2 0.16955 0.02221 0.35686 1 1 1
 H2 0.67004 0.02188 0.35694 1 1 1
 O0 0.52997 0.49961 0.64328 1 1 1
 H2 0.37809 0.49947 0.66355 1 1 1
CELL_PARAMETERS {angstrom}
 5.36 0.0 0.0
 0.0 7.00035713375 0.0
 0.0 0.0 27.0003571337
