&CONTROL
 calculation = 'relax'
 disk_io = 'none'
 pseudo_dir = '/home/camp/zhonxu/pseudo'
/
&SYSTEM
 ibrav = 0
 nat = 30
 ntyp = 3
 nbnd = 360
 starting_magnetization(1) = 0
 starting_magnetization(2) = 0
 starting_magnetization(3) = 0
 ecutwfc = 40
 ecutrho = 500
 occupations = 'smearing'
 degauss = 0.01
 smearing = 'mp'
 nspin = 1
 lda_plus_u = .True.
 Hubbard_U(1) = 0
 Hubbard_U(2) = 7
 Hubbard_U(3) = 0
 Hubbard_alpha(1) = 0
 Hubbard_alpha(2) = 0
 Hubbard_alpha(3) = 0
 U_projection_type = 'atomic'
/
&ELECTRONS
/
&IONS
/
&CELL
/
K_POINTS {automatic}
 4 4 1 0 0 0
ATOMIC_SPECIES
 O0 15.9994 o_pbe_v1.01.uspp.F.UPF
 Pt1 195.08 pt_pbe_v1.uspp.F.UPF
 H2 1.00794 h_pbe_v1.uspp.F.UPF
ATOMIC_POSITIONS {crystal}
 O0 0.00000 0.00000 0.37693 0 0 1
 O0 0.00000 0.50000 0.39917 0 0 1
 Pt1 0.25000 0.50000 0.44903 0 0 1
 Pt1 0.00000 0.00000 0.45197 0 0 1
 O0 0.25000 0.81000 0.44277 0 0 1
 O0 0.25000 0.19000 0.45904 0 0 1
 O0 0.00000 0.50000 0.49541 0 0 1
 O0 0.00000 0.00000 0.52937 0 0 1
 Pt1 0.25000 0.00000 0.57612 0 0 1
 Pt1 0.00000 0.50000 0.57426 0 0 1
 O0 0.25000 0.69000 0.58308 0 0 1
 O0 0.25000 0.31000 0.58365 0 0 1
 O0 0.00000 0.00000 0.62161 0 0 1
 O0 0.50000 0.00000 0.37693 0 0 1
 O0 0.50000 0.50000 0.39917 0 0 1
 Pt1 0.75000 0.50000 0.44903 0 0 1
 Pt1 0.50000 0.00000 0.45197 0 0 1
 O0 0.75000 0.81000 0.44277 0 0 1
 O0 0.75000 0.19000 0.45904 0 0 1
 O0 0.50000 0.50000 0.49541 0 0 1
 O0 0.50000 0.00000 0.52937 0 0 1
 Pt1 0.75000 0.00000 0.57612 0 0 1
 Pt1 0.50000 0.50000 0.57426 0 0 1
 O0 0.75000 0.69000 0.58308 0 0 1
 O0 0.75000 0.31000 0.58365 0 0 1
 O0 0.50000 0.00000 0.62161 0 0 1
 H2 -0.00005 0.64006 0.38355 1 1 1
 H2 0.49995 0.64006 0.38355 1 1 1
 H2 0.14407 0.03138 0.36697 1 1 1
 H2 0.64407 0.03138 0.36697 1 1 1
CELL_PARAMETERS {angstrom}
 6.46 0.0 0.0
 0.0 6.49124025129 0.0
 0.0 0.0 26.4912402513
