&CONTROL
 calculation = 'relax'
 tstress = .True.
 tprnfor = .True.
 disk_io = 'none'
 pseudo_dir = '/home/camp/zhonxu/pseudo'
/
&SYSTEM
 ibrav = 0
 nat = 50
 ntyp = 3
 nbnd = 634
 tot_magnetization = 47
 starting_magnetization(1) = 0
 starting_magnetization(2) = 0.6
 starting_magnetization(3) = 0
 ecutwfc = 40
 ecutrho = 500
 occupations = 'smearing'
 degauss = 0.01
 smearing = 'mp'
 nspin = 2
 Hubbard_U(1) = 0
 Hubbard_U(2) = 0
 Hubbard_U(3) = 0
 Hubbard_alpha(1) = 0
 Hubbard_alpha(2) = 0
 Hubbard_alpha(3) = 0
/
&ELECTRONS
 mixing_beta = 0.3
/
&IONS
/
&CELL
/
K_POINTS {automatic}
 4 4 1 0 0 0
ATOMIC_SPECIES
 O0 15.9994 o_pbe_v1.01.uspp.F.UPF
 Mn1 54.938 mn_pbe_v1.uspp.F.UPF
 H2 1.00794 h_pbe_v1.uspp.F.UPF
ATOMIC_POSITIONS {crystal}
 O0 0.00000 0.50000 0.33599 0 0 0
 Mn1 0.25000 0.50000 0.37052 0 0 0
 Mn1 0.00000 0.00000 0.37052 0 0 0
 O0 0.25000 0.80000 0.37052 0 0 0
 O0 0.25000 0.20000 0.37052 0 0 0
 O0 0.00000 0.50000 0.40505 0 0 0
 O0 0.00000 0.00000 0.42231 0 0 0
 Mn1 0.25000 0.00000 0.45684 0 0 0
 Mn1 0.00000 0.50000 0.45684 0 0 0
 O0 0.25000 0.70000 0.45684 0 0 0
 O0 0.25000 0.30000 0.45684 0 0 0
 O0 0.00000 0.00000 0.49137 0 0 0
 O0 0.00002 0.50000 0.51104 1 1 1
 Mn1 0.25564 0.50000 0.54535 1 1 1
 Mn1 0.00027 0.00000 0.54661 1 1 1
 O0 0.25060 0.80423 0.54537 1 1 1
 O0 0.25060 0.19577 0.54537 1 1 1
 O0 0.00085 0.50000 0.57962 1 1 1
 O0 0.00139 0.00000 0.59955 1 1 1
 Mn1 0.25013 0.00000 0.63631 1 1 1
 Mn1 -0.00126 0.50000 0.62941 1 1 1
 O0 0.24200 0.69207 0.63858 1 1 1
 O0 0.24200 0.30793 0.63858 1 1 1
 O0 -0.00008 0.00000 0.66819 1 1 1
 O0 0.50000 0.50000 0.33599 0 0 0
 Mn1 0.75000 0.50000 0.37052 0 0 0
 Mn1 0.50000 0.00000 0.37052 0 0 0
 O0 0.75000 0.80000 0.37052 0 0 0
 O0 0.75000 0.20000 0.37052 0 0 0
 O0 0.50000 0.50000 0.40505 0 0 0
 O0 0.50000 0.00000 0.42231 0 0 0
 Mn1 0.75000 0.00000 0.45684 0 0 0
 Mn1 0.50000 0.50000 0.45684 0 0 0
 O0 0.75000 0.70000 0.45684 0 0 0
 O0 0.75000 0.30000 0.45684 0 0 0
 O0 0.50000 0.00000 0.49137 0 0 0
 O0 0.50043 0.50000 0.51093 1 1 1
 Mn1 0.74493 0.50000 0.54541 1 1 1
 Mn1 0.50013 0.00000 0.54702 1 1 1
 O0 0.74988 0.80421 0.54554 1 1 1
 O0 0.74988 0.19579 0.54554 1 1 1
 O0 0.49956 0.50000 0.58057 1 1 1
 O0 0.49999 0.00000 0.59966 1 1 1
 Mn1 0.75183 0.00000 0.63635 1 1 1
 Mn1 0.49951 0.50000 0.63990 1 1 1
 O0 0.75687 0.69304 0.63734 1 1 1
 O0 0.75687 0.30696 0.63734 1 1 1
 O0 0.50089 0.00000 0.66784 1 1 1
 O0 0.51247 0.50000 0.69020 1 1 1
 H2 0.35362 0.50000 0.70119 1 1 1
CELL_PARAMETERS {angstrom}
 5.68 0.0 0.0
 0.0 6.16597113195 0.0
 0.0 0.0 35.7153451507
