&CONTROL
 calculation = 'vc-relax'
 disk_io = 'none'
 pseudo_dir = '/home/camp/zhonxu/pseudo'
/
&SYSTEM
 ibrav = 0
 nat = 6
 ntyp = 2
 nbnd = 81
 starting_magnetization(1) = 0.6
 starting_magnetization(2) = 0
 ecutwfc = 40
 ecutrho = 500
 occupations = 'smearing'
 degauss = 0.01
 smearing = 'mp'
 nspin = 2
 Hubbard_U(1) = 0
 Hubbard_U(2) = 0
 Hubbard_alpha(1) = 0
 Hubbard_alpha(2) = 0
/
&ELECTRONS
 mixing_beta = 0.3
/
&IONS
/
&CELL
 cell_dofree = 'shape'
/
K_POINTS {automatic}
 5 5 5 0 0 0
ATOMIC_SPECIES
 Re0 186.207 re_pbe_v1.uspp.F.UPF
 O1 15.9994 o_pbe_v1.01.uspp.F.UPF
ATOMIC_POSITIONS {crystal}
 Re0 0.00000 0.00000 0.00000 0 0 0
 Re0 0.50276 0.50276 0.49453 0 0 0
 O1 0.29980 0.29980 0.00000 1 1 0
 O1 -0.29980 -0.29980 0.00000 1 1 0
 O1 0.79979 0.20021 0.49453 1 1 0
 O1 0.20021 0.79979 0.49453 1 1 0
CELL_PARAMETERS {angstrom}
 4.70410457125 1.2440048643e-06 0.0
 1.2440048643e-06 4.70410457125 0.0
 0.0 0.0 3.08198512849
