&CONTROL
 calculation = 'relax'
 disk_io = 'none'
 pseudo_dir = '/home/camp/zhonxu/pseudo'
/
&SYSTEM
 ibrav = 0
 nat = 31
 ntyp = 3
 nbnd = 333
 starting_magnetization(1) = 0
 starting_magnetization(2) = 0
 starting_magnetization(3) = 0
 ecutwfc = 40
 ecutrho = 500
 occupations = 'smearing'
 degauss = 0.01
 smearing = 'mp'
 nspin = 1
 lda_plus_u = .True.
 Hubbard_U(1) = 0
 Hubbard_U(2) = 5
 Hubbard_U(3) = 0
 Hubbard_alpha(1) = 0
 Hubbard_alpha(2) = 0
 Hubbard_alpha(3) = 0
 U_projection_type = 'atomic'
/
&ELECTRONS
/
&IONS
/
&CELL
/
K_POINTS {automatic}
 4 4 1 0 0 0
ATOMIC_SPECIES
 O0 15.9994 o_pbe_v1.01.uspp.F.UPF
 Nb1 92.9064 nb_pbe_v1.uspp.F.UPF
 H2 1.00794 h_pbe_v1.uspp.F.UPF
ATOMIC_POSITIONS {crystal}
 O0 0.00000 0.00000 0.37149 0 0 1
 O0 0.00000 0.50000 0.38872 0 0 1
 Nb1 0.25000 0.50000 0.44458 0 0 1
 Nb1 0.00000 0.00000 0.44389 0 0 1
 O0 0.25000 0.79000 0.44619 0 0 1
 O0 0.25000 0.21000 0.44619 0 0 1
 O0 0.00000 0.50000 0.50066 0 0 1
 O0 0.00000 0.00000 0.52293 0 0 1
 Nb1 0.25000 0.00000 0.57703 0 0 1
 Nb1 0.00000 0.50000 0.57006 0 0 1
 O0 0.25000 0.71000 0.57633 0 0 1
 O0 0.25000 0.29000 0.57634 0 0 1
 O0 0.00000 0.00000 0.62131 0 0 1
 O0 0.50000 0.00000 0.37204 0 0 1
 O0 0.50000 0.50000 0.39081 0 0 1
 Nb1 0.75000 0.50000 0.44465 0 0 1
 Nb1 0.50000 0.00000 0.44491 0 0 1
 O0 0.75000 0.79000 0.44619 0 0 1
 O0 0.75000 0.21000 0.44619 0 0 1
 O0 0.50000 0.50000 0.49518 0 0 1
 O0 0.50000 0.00000 0.52260 0 0 1
 Nb1 0.75000 0.00000 0.57716 0 0 1
 Nb1 0.50000 0.50000 0.58860 0 0 1
 O0 0.75000 0.71000 0.57620 0 0 1
 O0 0.75000 0.29000 0.57620 0 0 1
 O0 0.50000 0.00000 0.62126 0 0 1
 H2 -0.00049 0.50154 0.35243 1 1 1
 H2 0.49949 0.50145 0.35458 1 1 1
 H2 0.15046 0.00037 0.35554 1 1 1
 H2 0.64964 0.00037 0.35581 1 1 1
 O0 0.50003 0.50000 0.65222 1 1 1
CELL_PARAMETERS {angstrom}
 5.92 0.0 0.0
 0.0 6.98621499812 0.0
 0.0 0.0 26.9862149981
