&CONTROL
 calculation = 'relax'
 tstress = .True.
 tprnfor = .True.
 disk_io = 'none'
 pseudo_dir = '/home/camp/zhonxu/pseudo'
/
&SYSTEM
 ibrav = 0
 nat = 50
 ntyp = 3
 nbnd = 658
 starting_magnetization(1) = 0
 starting_magnetization(2) = 0
 starting_magnetization(3) = 0
 ecutwfc = 40
 ecutrho = 500
 occupations = 'smearing'
 degauss = 0.01
 smearing = 'mp'
 nspin = 1
 Hubbard_U(1) = 0
 Hubbard_U(2) = 0
 Hubbard_U(3) = 0
 Hubbard_alpha(1) = 0
 Hubbard_alpha(2) = 0
 Hubbard_alpha(3) = 0
/
&ELECTRONS
 mixing_beta = 0.3
/
&IONS
/
&CELL
/
K_POINTS {automatic}
 4 4 1 0 0 0
ATOMIC_SPECIES
 O0 15.9994 o_pbe_v1.01.uspp.F.UPF
 Ir1 192.22 ir_pbe_v1.uspp.F.UPF
 H2 1.00794 h_pbe_v1.uspp.F.UPF
ATOMIC_POSITIONS {crystal}
 O0 0.00000 0.50000 0.33268 0 0 0
 Ir1 0.25000 0.50000 0.36650 0 0 0
 Ir1 0.00000 0.00000 0.36650 0 0 0
 O0 0.25000 0.81000 0.36650 0 0 0
 O0 0.25000 0.19000 0.36650 0 0 0
 O0 0.00000 0.50000 0.40032 0 0 0
 O0 0.00000 0.00000 0.42168 0 0 0
 Ir1 0.25000 0.00000 0.45550 0 0 0
 Ir1 0.00000 0.50000 0.45550 0 0 0
 O0 0.25000 0.69000 0.45550 0 0 0
 O0 0.25000 0.31000 0.45550 0 0 0
 O0 0.00000 0.00000 0.48932 0 0 0
 O0 0.00016 0.50000 0.51046 1 1 1
 Ir1 0.25218 0.50000 0.54434 1 1 1
 Ir1 0.00009 0.00000 0.54471 1 1 1
 O0 0.25037 0.80853 0.54454 1 1 1
 O0 0.25037 0.19147 0.54454 1 1 1
 O0 0.00039 0.50000 0.57776 1 1 1
 O0 0.00036 0.00000 0.59958 1 1 1
 Ir1 0.25023 0.00000 0.63429 1 1 1
 Ir1 -0.00113 0.50000 0.63140 1 1 1
 O0 0.24810 0.69100 0.63457 1 1 1
 O0 0.24810 0.30900 0.63457 1 1 1
 O0 0.00010 0.00000 0.66706 1 1 1
 O0 0.50000 0.50000 0.33268 0 0 0
 Ir1 0.75000 0.50000 0.36650 0 0 0
 Ir1 0.50000 0.00000 0.36650 0 0 0
 O0 0.75000 0.81000 0.36650 0 0 0
 O0 0.75000 0.19000 0.36650 0 0 0
 O0 0.50000 0.50000 0.40032 0 0 0
 O0 0.50000 0.00000 0.42168 0 0 0
 Ir1 0.75000 0.00000 0.45550 0 0 0
 Ir1 0.50000 0.50000 0.45550 0 0 0
 O0 0.75000 0.69000 0.45550 0 0 0
 O0 0.75000 0.31000 0.45550 0 0 0
 O0 0.50000 0.00000 0.48932 0 0 0
 O0 0.50012 0.50000 0.51010 1 1 1
 Ir1 0.74813 0.50000 0.54435 1 1 1
 Ir1 0.50007 0.00000 0.54467 1 1 1
 O0 0.74982 0.80852 0.54456 1 1 1
 O0 0.74982 0.19148 0.54456 1 1 1
 O0 0.50004 0.50000 0.57869 1 1 1
 O0 0.49992 0.00000 0.59946 1 1 1
 Ir1 0.75002 0.00000 0.63423 1 1 1
 Ir1 0.49965 0.50000 0.63443 1 1 1
 O0 0.75127 0.69158 0.63403 1 1 1
 O0 0.75127 0.30842 0.63403 1 1 1
 O0 0.50017 0.00000 0.66671 1 1 1
 O0 0.51474 0.50000 0.68792 1 1 1
 H2 0.37327 0.50000 0.69899 1 1 1
CELL_PARAMETERS {angstrom}
 6.36 0.0 0.0
 0.0 6.42052957317 0.0
 0.0 0.0 36.0705955976
