&CONTROL
 calculation = 'relax'
 disk_io = 'none'
 pseudo_dir = '/home/camp/zhonxu/pseudo'
/
&SYSTEM
 ibrav = 0
 nat = 48
 ntyp = 2
 nbnd = 624
 starting_magnetization(1) = 0
 starting_magnetization(2) = 0.6
 ecutwfc = 40
 ecutrho = 500
 occupations = 'smearing'
 degauss = 0.01
 smearing = 'mp'
 nspin = 2
 Hubbard_U(1) = 0
 Hubbard_U(2) = 0
 Hubbard_alpha(1) = 0
 Hubbard_alpha(2) = 0
/
&ELECTRONS
 mixing_beta = 0.3
/
&IONS
/
&CELL
/
K_POINTS {automatic}
 4 4 1 0 0 0
ATOMIC_SPECIES
 O0 15.9994 o_pbe_v1.01.uspp.F.UPF
 Mn1 54.938 mn_pbe_v1.uspp.F.UPF
ATOMIC_POSITIONS {crystal}
 O0 0.00000 0.50000 0.33599 0 0 0
 Mn1 0.25000 0.50000 0.37052 0 0 0
 Mn1 0.00000 0.00000 0.37052 0 0 0
 O0 0.25000 0.80000 0.37052 0 0 0
 O0 0.25000 0.20000 0.37052 0 0 0
 O0 0.00000 0.50000 0.40505 0 0 0
 O0 0.00000 0.00000 0.42231 0 0 0
 Mn1 0.25000 0.00000 0.45684 0 0 0
 Mn1 0.00000 0.50000 0.45684 0 0 0
 O0 0.25000 0.70000 0.45684 0 0 0
 O0 0.25000 0.30000 0.45684 0 0 0
 O0 0.00000 0.00000 0.49137 0 0 0
 O0 0.00000 0.50000 0.51071 1 1 1
 Mn1 0.25000 0.50000 0.54456 1 1 1
 Mn1 0.00000 0.00000 0.54672 1 1 1
 O0 0.25000 0.80368 0.54572 1 1 1
 O0 0.25000 0.19632 0.54572 1 1 1
 O0 0.00000 0.50000 0.58019 1 1 1
 O0 0.00000 0.00000 0.59994 1 1 1
 Mn1 0.25000 0.00000 0.63688 1 1 1
 Mn1 0.00000 0.50000 0.63173 1 1 1
 O0 0.25000 0.69063 0.64053 1 1 1
 O0 0.25000 0.30937 0.64053 1 1 1
 O0 0.00000 0.00000 0.66866 1 1 1
 O0 0.50000 0.50000 0.33599 0 0 0
 Mn1 0.75000 0.50000 0.37052 0 0 0
 Mn1 0.50000 0.00000 0.37052 0 0 0
 O0 0.75000 0.80000 0.37052 0 0 0
 O0 0.75000 0.20000 0.37052 0 0 0
 O0 0.50000 0.50000 0.40505 0 0 0
 O0 0.50000 0.00000 0.42231 0 0 0
 Mn1 0.75000 0.00000 0.45684 0 0 0
 Mn1 0.50000 0.50000 0.45684 0 0 0
 O0 0.75000 0.70000 0.45684 0 0 0
 O0 0.75000 0.30000 0.45684 0 0 0
 O0 0.50000 0.00000 0.49137 0 0 0
 O0 0.50000 0.50000 0.51071 1 1 1
 Mn1 0.75000 0.50000 0.54456 1 1 1
 Mn1 0.50000 0.00000 0.54672 1 1 1
 O0 0.75000 0.80368 0.54572 1 1 1
 O0 0.75000 0.19632 0.54572 1 1 1
 O0 0.50000 0.50000 0.58019 1 1 1
 O0 0.50000 0.00000 0.59994 1 1 1
 Mn1 0.75000 0.00000 0.63688 1 1 1
 Mn1 0.50000 0.50000 0.63173 1 1 1
 O0 0.75000 0.69063 0.64053 1 1 1
 O0 0.75000 0.30937 0.64053 1 1 1
 O0 0.50000 0.00000 0.66866 1 1 1
CELL_PARAMETERS {angstrom}
 5.68 0.0 0.0
 0.0 6.16597113195 0.0
 0.0 0.0 35.7153451507
