&CONTROL
 outdir = 'alpha_0.15/'
 pseudo_dir = '/home/camp/zhonxu/pseudo'
/
&SYSTEM
 ibrav = 0
 nat = 48
 ntyp = 3
 nbnd = 624
 starting_magnetization(1) = 0.6
 starting_magnetization(2) = 0.6
 starting_magnetization(3) = 0
 ecutwfc = 40
 ecutrho = 500
 occupations = 'smearing'
 degauss = 0.01
 smearing = 'mp'
 nspin = 2
 lda_plus_u = .True.
 Hubbard_U(1) = 1e-20
 Hubbard_U(2) = 1e-20
 Hubbard_U(3) = 1e-20
 Hubbard_alpha(1) = 0.15
 Hubbard_alpha(2) = 0
 Hubbard_alpha(3) = 0
 U_projection_type = 'atomic'
/
&ELECTRONS
 startingwfc = 'file'
 startingpot = 'file'
 diago_thr_init = 8.71e-10
/
&IONS
/
&CELL
/
K_POINTS {automatic}
 4 4 4 0 0 0
ATOMIC_SPECIES
 Mn0 54.938 mn_pbe_v1.uspp.F.UPF
 Mn1 54.938 mn_pbe_v1.uspp.F.UPF
 O2 15.9994 o_pbe_v1.01.uspp.F.UPF
ATOMIC_POSITIONS {crystal}
 Mn0 0.00000 0.00000 0.00000
 Mn1 0.25000 0.25000 0.25000
 Mn1 0.00000 0.00000 0.50000
 Mn1 0.25000 0.25000 0.75000
 Mn1 0.00000 0.50000 0.00000
 Mn1 0.25000 0.75000 0.25000
 Mn1 0.00000 0.50000 0.50000
 Mn1 0.25000 0.75000 0.75000
 Mn1 0.50000 0.00000 0.00000
 Mn1 0.75000 0.25000 0.25000
 Mn1 0.50000 0.00000 0.50000
 Mn1 0.75000 0.25000 0.75000
 Mn1 0.50000 0.50000 0.00000
 Mn1 0.75000 0.75000 0.25000
 Mn1 0.50000 0.50000 0.50000
 Mn1 0.75000 0.75000 0.75000
 O2 0.15000 0.15000 0.00000
 O2 -0.15000 -0.15000 0.00000
 O2 0.40000 0.10000 0.25000
 O2 0.10000 0.40000 0.25000
 O2 0.15000 0.15000 0.50000
 O2 -0.15000 -0.15000 0.50000
 O2 0.40000 0.10000 0.75000
 O2 0.10000 0.40000 0.75000
 O2 0.15000 0.65000 0.00000
 O2 -0.15000 0.35000 0.00000
 O2 0.40000 0.60000 0.25000
 O2 0.10000 0.90000 0.25000
 O2 0.15000 0.65000 0.50000
 O2 -0.15000 0.35000 0.50000
 O2 0.40000 0.60000 0.75000
 O2 0.10000 0.90000 0.75000
 O2 0.65000 0.15000 0.00000
 O2 0.35000 -0.15000 0.00000
 O2 0.90000 0.10000 0.25000
 O2 0.60000 0.40000 0.25000
 O2 0.65000 0.15000 0.50000
 O2 0.35000 -0.15000 0.50000
 O2 0.90000 0.10000 0.75000
 O2 0.60000 0.40000 0.75000
 O2 0.65000 0.65000 0.00000
 O2 0.35000 0.35000 0.00000
 O2 0.90000 0.60000 0.25000
 O2 0.60000 0.90000 0.25000
 O2 0.65000 0.65000 0.50000
 O2 0.35000 0.35000 0.50000
 O2 0.90000 0.60000 0.75000
 O2 0.60000 0.90000 0.75000
CELL_PARAMETERS {angstrom}
 8.72 0.0 0.0
 0.0 8.72 0.0
 0.0 0.0 5.68
