&CONTROL
 calculation = 'relax'
 disk_io = 'none'
 pseudo_dir = '/home/camp/zhonxu/pseudo'
/
&SYSTEM
 ibrav = 0
 nat = 31
 ntyp = 3
 nbnd = 357
 starting_magnetization(1) = 0
 starting_magnetization(2) = 0
 starting_magnetization(3) = 0
 ecutwfc = 40
 ecutrho = 500
 occupations = 'smearing'
 degauss = 0.01
 smearing = 'mp'
 nspin = 1
 lda_plus_u = .True.
 Hubbard_U(1) = 0
 Hubbard_U(2) = 1
 Hubbard_U(3) = 0
 Hubbard_alpha(1) = 0
 Hubbard_alpha(2) = 0
 Hubbard_alpha(3) = 0
 U_projection_type = 'atomic'
/
&ELECTRONS
/
&IONS
/
&CELL
/
K_POINTS {automatic}
 4 4 1 0 0 0
ATOMIC_SPECIES
 O0 15.9994 o_pbe_v1.01.uspp.F.UPF
 Ir1 192.22 ir_pbe_v1.uspp.F.UPF
 H2 1.00794 h_pbe_v1.uspp.F.UPF
ATOMIC_POSITIONS {crystal}
 O0 0.00000 0.00000 0.37808 0 0 1
 O0 0.00000 0.50000 0.40316 0 0 1
 Ir1 0.25000 0.50000 0.45329 0 0 1
 Ir1 0.00000 0.00000 0.45286 0 0 1
 O0 0.25000 0.81000 0.45287 0 0 1
 O0 0.25000 0.19000 0.45254 0 0 1
 O0 0.00000 0.50000 0.49883 0 0 1
 O0 0.00000 0.00000 0.52834 0 0 1
 Ir1 0.25000 0.00000 0.57529 0 0 1
 Ir1 0.00000 0.50000 0.57198 0 0 1
 O0 0.25000 0.69000 0.57477 0 0 1
 O0 0.25000 0.31000 0.57480 0 0 1
 O0 0.00000 0.00000 0.61968 0 0 1
 O0 0.50000 0.00000 0.37800 0 0 1
 O0 0.50000 0.50000 0.40260 0 0 1
 Ir1 0.75000 0.50000 0.45330 0 0 1
 Ir1 0.50000 0.00000 0.45283 0 0 1
 O0 0.75000 0.81000 0.45288 0 0 1
 O0 0.75000 0.19000 0.45255 0 0 1
 O0 0.50000 0.50000 0.50075 0 0 1
 O0 0.50000 0.00000 0.52826 0 0 1
 Ir1 0.75000 0.00000 0.57529 0 0 1
 Ir1 0.50000 0.50000 0.57867 0 0 1
 O0 0.75000 0.69000 0.57476 0 0 1
 O0 0.75000 0.31000 0.57480 0 0 1
 O0 0.50000 0.00000 0.61948 0 0 1
 H2 -0.00007 0.63340 0.38413 1 1 1
 H2 0.49997 0.63593 0.38461 1 1 1
 H2 0.14362 0.03397 0.36655 1 1 1
 H2 0.64329 0.03499 0.36644 1 1 1
 O0 0.50001 0.49951 0.64567 1 1 1
CELL_PARAMETERS {angstrom}
 6.36 0.0 0.0
 0.0 6.42052957317 0.0
 0.0 0.0 26.4205295732
