&CONTROL
 calculation = 'relax'
 tstress = .True.
 tprnfor = .True.
 disk_io = 'none'
 pseudo_dir = '/home/camp/zhonxu/pseudo'
/
&SYSTEM
 ibrav = 0
 nat = 31
 ntyp = 3
 nbnd = 333
 tot_magnetization = 14
 starting_magnetization(1) = 0
 starting_magnetization(2) = 0.6
 starting_magnetization(3) = 0
 ecutwfc = 40
 ecutrho = 500
 occupations = 'smearing'
 degauss = 0.01
 smearing = 'mp'
 nspin = 2
 lda_plus_u = .True.
 Hubbard_U(1) = 0
 Hubbard_U(2) = 8
 Hubbard_U(3) = 0
 Hubbard_alpha(1) = 0
 Hubbard_alpha(2) = 0
 Hubbard_alpha(3) = 0
 U_projection_type = 'atomic'
/
&ELECTRONS
/
&IONS
/
&CELL
/
K_POINTS {automatic}
 4 4 1 0 0 0
ATOMIC_SPECIES
 O0 15.9994 o_pbe_v1.01.uspp.F.UPF
 Cr1 51.996 cr_pbe_v1.uspp.F.UPF
 H2 1.00794 h_pbe_v1.uspp.F.UPF
ATOMIC_POSITIONS {crystal}
 O0 0.00000 0.00000 0.37176 0 0 1
 O0 0.00000 0.50000 0.39333 0 0 1
 Cr1 0.25000 0.50000 0.44658 0 0 1
 Cr1 0.00000 0.00000 0.44853 0 0 1
 O0 0.25000 0.80000 0.44747 0 0 1
 O0 0.25000 0.20000 0.44755 0 0 1
 O0 0.00000 0.50000 0.49623 0 0 1
 O0 0.00000 0.00000 0.52566 0 0 1
 Cr1 0.25000 0.00000 0.57752 0 0 1
 Cr1 0.00000 0.50000 0.56680 0 0 1
 O0 0.25000 0.70000 0.57829 0 0 1
 O0 0.25000 0.30000 0.57817 0 0 1
 O0 0.00000 0.00000 0.62733 0 0 1
 O0 0.50000 0.00000 0.37173 0 0 1
 O0 0.50000 0.50000 0.39328 0 0 1
 Cr1 0.75000 0.50000 0.44660 0 0 1
 Cr1 0.50000 0.00000 0.44822 0 0 1
 O0 0.75000 0.80000 0.44747 0 0 1
 O0 0.75000 0.20000 0.44753 0 0 1
 O0 0.50000 0.50000 0.50066 0 0 1
 O0 0.50000 0.00000 0.52547 0 0 1
 Cr1 0.75000 0.00000 0.57796 0 0 1
 Cr1 0.50000 0.50000 0.58914 0 0 1
 O0 0.75000 0.70000 0.57838 0 0 1
 O0 0.75000 0.30000 0.57832 0 0 1
 O0 0.50000 0.00000 0.62711 0 0 1
 H2 -0.00051 0.63699 0.37399 1 1 1
 H2 0.49934 0.63809 0.37433 1 1 1
 H2 0.15806 0.02845 0.35882 1 1 1
 H2 0.65847 0.02797 0.35895 1 1 1
 O0 0.49926 0.49881 0.65564 1 1 1
CELL_PARAMETERS {angstrom}
 5.8 0.0 0.0
 0.0 6.19425540319 0.0
 0.0 0.0 26.1942554032
