&CONTROL
 calculation = 'relax'
 tstress = .True.
 tprnfor = .True.
 disk_io = 'none'
 pseudo_dir = '/home/camp/zhonxu/pseudo'
/
&SYSTEM
 ibrav = 0
 nat = 33
 ntyp = 3
 nbnd = 355
 starting_magnetization(1) = 0
 starting_magnetization(2) = 0
 starting_magnetization(3) = 0
 ecutwfc = 40
 ecutrho = 500
 occupations = 'smearing'
 degauss = 0.01
 smearing = 'mp'
 nspin = 1
 lda_plus_u = .True.
 Hubbard_U(1) = 0
 Hubbard_U(2) = 6.5
 Hubbard_U(3) = 0
 Hubbard_alpha(1) = 0
 Hubbard_alpha(2) = 0
 Hubbard_alpha(3) = 0
 U_projection_type = 'atomic'
/
&ELECTRONS
/
&IONS
/
&CELL
/
K_POINTS {automatic}
 4 4 1 0 0 0
ATOMIC_SPECIES
 O0 15.9994 o_pbe_v1.01.uspp.F.UPF
 Mo1 95.94 mo_pbe_v1.uspp.F.UPF
 H2 1.00794 h_pbe_v1.uspp.F.UPF
ATOMIC_POSITIONS {crystal}
 O0 0.00000 0.00000 0.37098 0 0 1
 O0 0.00000 0.50000 0.38270 0 0 1
 Mo1 0.25000 0.50000 0.44047 0 0 1
 Mo1 0.00000 0.00000 0.44346 0 0 1
 O0 0.25000 0.78000 0.44282 0 0 1
 O0 0.25000 0.22000 0.44269 0 0 1
 O0 0.00000 0.50000 0.49761 0 0 1
 O0 0.00000 0.00000 0.51680 0 0 1
 Mo1 0.25000 0.00000 0.57539 0 0 1
 Mo1 0.00000 0.50000 0.56526 0 0 1
 O0 0.25000 0.72000 0.57019 0 0 1
 O0 0.25000 0.28000 0.57123 0 0 1
 O0 0.00000 0.00000 0.62591 0 0 1
 O0 0.50000 0.00000 0.37115 0 0 1
 O0 0.50000 0.50000 0.38293 0 0 1
 Mo1 0.75000 0.50000 0.44046 0 0 1
 Mo1 0.50000 0.00000 0.44397 0 0 1
 O0 0.75000 0.78000 0.44286 0 0 1
 O0 0.75000 0.22000 0.44267 0 0 1
 O0 0.50000 0.50000 0.49772 0 0 1
 O0 0.50000 0.00000 0.51645 0 0 1
 Mo1 0.75000 0.00000 0.57510 0 0 1
 Mo1 0.50000 0.50000 0.57046 0 0 1
 O0 0.75000 0.72000 0.57016 0 0 1
 O0 0.75000 0.28000 0.57119 0 0 1
 O0 0.50000 0.00000 0.62552 0 0 1
 H2 -0.00058 0.61200 0.36068 1 1 1
 H2 0.49951 0.61740 0.36279 1 1 1
 H2 0.16727 0.01814 0.35677 1 1 1
 H2 0.66590 0.01937 0.35658 1 1 1
 O0 0.50021 0.51999 0.64226 1 1 1
 O0 0.49994 0.35646 0.67528 1 1 1
 H2 0.50001 0.42481 0.70724 1 1 1
CELL_PARAMETERS {angstrom}
 5.46 0.0 0.0
 0.0 7.00035713375 0.0
 0.0 0.0 27.0003571337
