&CONTROL
 calculation = 'relax'
 tstress = .True.
 tprnfor = .True.
 disk_io = 'none'
 pseudo_dir = '/home/camp/zhonxu/pseudo'
/
&SYSTEM
 ibrav = 0
 nat = 50
 ntyp = 3
 nbnd = 682
 starting_magnetization(1) = 0
 starting_magnetization(2) = 0
 starting_magnetization(3) = 0
 ecutwfc = 40
 ecutrho = 500
 occupations = 'smearing'
 degauss = 0.01
 smearing = 'mp'
 nspin = 1
 Hubbard_U(1) = 0
 Hubbard_U(2) = 0
 Hubbard_U(3) = 0
 Hubbard_alpha(1) = 0
 Hubbard_alpha(2) = 0
 Hubbard_alpha(3) = 0
/
&ELECTRONS
 mixing_beta = 0.3
/
&IONS
/
&CELL
/
K_POINTS {automatic}
 4 4 1 0 0 0
ATOMIC_SPECIES
 O0 15.9994 o_pbe_v1.01.uspp.F.UPF
 Pt1 195.08 pt_pbe_v1.uspp.F.UPF
 H2 1.00794 h_pbe_v1.uspp.F.UPF
ATOMIC_POSITIONS {crystal}
 O0 0.00000 0.50000 0.33146 0 0 0
 Pt1 0.25000 0.50000 0.36553 0 0 0
 Pt1 0.00000 0.00000 0.36553 0 0 0
 O0 0.25000 0.81000 0.36553 0 0 0
 O0 0.25000 0.19000 0.36553 0 0 0
 O0 0.00000 0.50000 0.39959 0 0 0
 O0 0.00000 0.00000 0.42111 0 0 0
 Pt1 0.25000 0.00000 0.45518 0 0 0
 Pt1 0.00000 0.50000 0.45518 0 0 0
 O0 0.25000 0.69000 0.45518 0 0 0
 O0 0.25000 0.31000 0.45518 0 0 0
 O0 0.00000 0.00000 0.48924 0 0 0
 O0 0.00037 0.50000 0.51042 1 1 1
 Pt1 0.25102 0.50000 0.54406 1 1 1
 Pt1 0.00020 0.00000 0.54455 1 1 1
 O0 0.25046 0.80917 0.54525 1 1 1
 O0 0.25046 0.19083 0.54525 1 1 1
 O0 0.00060 0.50000 0.57793 1 1 1
 O0 0.00006 0.00000 0.60005 1 1 1
 Pt1 0.24967 0.00000 0.63434 1 1 1
 Pt1 -0.00200 0.50000 0.63347 1 1 1
 O0 0.24690 0.68939 0.63910 1 1 1
 O0 0.24690 0.31061 0.63910 1 1 1
 O0 -0.00022 0.00000 0.66766 1 1 1
 O0 0.50000 0.50000 0.33146 0 0 0
 Pt1 0.75000 0.50000 0.36553 0 0 0
 Pt1 0.50000 0.00000 0.36553 0 0 0
 O0 0.75000 0.81000 0.36553 0 0 0
 O0 0.75000 0.19000 0.36553 0 0 0
 O0 0.50000 0.50000 0.39959 0 0 0
 O0 0.50000 0.00000 0.42111 0 0 0
 Pt1 0.75000 0.00000 0.45518 0 0 0
 Pt1 0.50000 0.50000 0.45518 0 0 0
 O0 0.75000 0.69000 0.45518 0 0 0
 O0 0.75000 0.31000 0.45518 0 0 0
 O0 0.50000 0.00000 0.48924 0 0 0
 O0 0.50029 0.50000 0.50993 1 1 1
 Pt1 0.74960 0.50000 0.54410 1 1 1
 Pt1 0.50021 0.00000 0.54458 1 1 1
 O0 0.75002 0.80918 0.54500 1 1 1
 O0 0.75002 0.19082 0.54500 1 1 1
 O0 0.49993 0.50000 0.57856 1 1 1
 O0 0.50001 0.00000 0.60002 1 1 1
 Pt1 0.74996 0.00000 0.63427 1 1 1
 Pt1 0.49869 0.50000 0.63580 1 1 1
 O0 0.75087 0.69004 0.63817 1 1 1
 O0 0.75087 0.30996 0.63817 1 1 1
 O0 0.49982 0.00000 0.66744 1 1 1
 O0 0.51321 0.50000 0.68986 1 1 1
 H2 0.36959 0.50000 0.69902 1 1 1
CELL_PARAMETERS {angstrom}
 6.46 0.0 0.0
 0.0 6.49124025129 0.0
 0.0 0.0 36.2035316724
