&CONTROL
 calculation = 'relax'
 disk_io = 'none'
 pseudo_dir = '/home/camp/zhonxu/pseudo'
/
&SYSTEM
 ibrav = 0
 nat = 32
 ntyp = 3
 nbnd = 310
 starting_magnetization(1) = 0
 starting_magnetization(2) = 0
 starting_magnetization(3) = 0
 ecutwfc = 40
 ecutrho = 500
 occupations = 'smearing'
 degauss = 0.01
 smearing = 'mp'
 nspin = 1
 lda_plus_u = .True.
 Hubbard_U(1) = 0
 Hubbard_U(2) = 6
 Hubbard_U(3) = 0
 Hubbard_alpha(1) = 0
 Hubbard_alpha(2) = 0
 Hubbard_alpha(3) = 0
 U_projection_type = 'atomic'
/
&ELECTRONS
/
&IONS
/
&CELL
/
K_POINTS {automatic}
 4 4 1 0 0 0
ATOMIC_SPECIES
 O0 15.9994 o_pbe_v1.01.uspp.F.UPF
 Ti1 47.88 ti_pbe_v1.uspp.F.UPF
 H2 1.00794 h_pbe_v1.uspp.F.UPF
ATOMIC_POSITIONS {crystal}
 O0 0.00000 0.00000 0.37693 0 0 1
 O0 0.00000 0.50000 0.39651 0 0 1
 Ti1 0.25000 0.50000 0.44869 0 0 1
 Ti1 0.00000 0.00000 0.45427 0 0 1
 O0 0.25000 0.81000 0.44802 0 0 1
 O0 0.25000 0.19000 0.44908 0 0 1
 O0 0.00000 0.50000 0.49612 0 0 1
 O0 0.00000 0.00000 0.52541 0 0 1
 Ti1 0.25000 0.00000 0.58161 0 0 1
 Ti1 0.00000 0.50000 0.56650 0 0 1
 O0 0.25000 0.69000 0.57959 0 0 1
 O0 0.25000 0.31000 0.57957 0 0 1
 O0 0.00000 0.00000 0.62236 0 0 1
 O0 0.50000 0.00000 0.37714 0 0 1
 O0 0.50000 0.50000 0.39583 0 0 1
 Ti1 0.75000 0.50000 0.44880 0 0 1
 Ti1 0.50000 0.00000 0.45489 0 0 1
 O0 0.75000 0.81000 0.44793 0 0 1
 O0 0.75000 0.19000 0.44913 0 0 1
 O0 0.50000 0.50000 0.49108 0 0 1
 O0 0.50000 0.00000 0.52556 0 0 1
 Ti1 0.75000 0.00000 0.58168 0 0 1
 Ti1 0.50000 0.50000 0.59384 0 0 1
 O0 0.75000 0.69000 0.57899 0 0 1
 O0 0.75000 0.31000 0.57893 0 0 1
 O0 0.50000 0.00000 0.62236 0 0 1
 H2 -0.00077 0.62230 0.37491 1 1 1
 H2 0.49933 0.61876 0.37316 1 1 1
 H2 0.14965 0.03935 0.36377 1 1 1
 H2 0.64951 0.03935 0.36390 1 1 1
 O0 0.50479 0.49989 0.66128 1 1 1
 H2 0.37661 0.49951 0.68441 1 1 1
CELL_PARAMETERS {angstrom}
 5.94 0.0 0.0
 0.0 6.57609306503 0.0
 0.0 0.0 26.576093065
