&CONTROL
 calculation = 'relax'
 tprnfor = .True.
 disk_io = 'none'
 pseudo_dir = '/home-research/zhongnanxu/pseudopotentials/gbrv_espresso_pseudo_v1.01'
/
&SYSTEM
 ibrav = 0
 nat = 33
 ntyp = 3
 nbnd = 343
 tot_magnetization = 15
 starting_magnetization(1) = 0
 starting_magnetization(2) = 0.6
 starting_magnetization(3) = 0
 ecutwfc = 40
 ecutrho = 500
 occupations = 'smearing'
 degauss = 0.01
 smearing = 'mp'
 nspin = 2
 lda_plus_u = .True.
 Hubbard_U(1) = 0
 Hubbard_U(2) = 5.5
 Hubbard_U(3) = 0
 Hubbard_alpha(1) = 0
 Hubbard_alpha(2) = 0
 Hubbard_alpha(3) = 0
 U_projection_type = 'atomic'
/
&ELECTRONS
 mixing_beta = 0.3
/
&IONS
/
&CELL
/
K_POINTS {automatic}
 4 4 1 0 0 0
ATOMIC_SPECIES
 O0 15.9994 o_pbe_v1.01.uspp.F.UPF
 Cr1 51.996 cr_pbe_v1.uspp.F.UPF
 H2 1.00794 h_pbe_v1.uspp.F.UPF
ATOMIC_POSITIONS {crystal}
 O0 0.00000 0.00000 0.37640 0 0 1
 O0 0.00000 0.50000 0.39976 0 0 1
 Cr1 0.25000 0.50000 0.45100 0 0 1
 Cr1 0.00000 0.00000 0.44910 0 0 1
 O0 0.25000 0.80000 0.44970 0 0 1
 O0 0.25000 0.20000 0.44985 0 0 1
 O0 0.00000 0.50000 0.49803 0 0 1
 O0 0.00000 0.00000 0.52259 0 0 1
 Cr1 0.25000 0.00000 0.56847 0 0 1
 Cr1 0.00000 0.50000 0.56741 0 0 1
 O0 0.25000 0.70000 0.57319 0 0 1
 O0 0.25000 0.30000 0.57532 0 0 1
 O0 0.00000 0.00000 0.61914 0 0 1
 O0 0.50000 0.00000 0.37617 0 0 1
 O0 0.50000 0.50000 0.39968 0 0 1
 Cr1 0.75000 0.50000 0.45105 0 0 1
 Cr1 0.50000 0.00000 0.44915 0 0 1
 O0 0.75000 0.80000 0.44967 0 0 1
 O0 0.75000 0.20000 0.44988 0 0 1
 O0 0.50000 0.50000 0.50051 0 0 1
 O0 0.50000 0.00000 0.52262 0 0 1
 Cr1 0.75000 0.00000 0.58070 0 0 1
 Cr1 0.50000 0.50000 0.57532 0 0 1
 O0 0.75000 0.70000 0.57493 0 0 1
 O0 0.75000 0.30000 0.57697 0 0 1
 O0 0.50000 0.00000 0.61824 0 0 1
 H2 -0.00066 0.63819 0.38119 1 1 1
 H2 0.49977 0.63992 0.38174 1 1 1
 H2 0.15858 0.03085 0.36438 1 1 1
 H2 0.65831 0.03122 0.36420 1 1 1
 O0 0.49986 0.53704 0.65089 0 1 1
 O0 0.50022 0.35092 0.67998 0 1 1
 H2 0.49989 0.41916 0.71354 0 1 1
CELL_PARAMETERS {angstrom}
 5.8 0.0 0.0
 0.0 6.19425540319 0.0
 0.0 0.0 26.1942554032
