&CONTROL
 calculation = 'relax'
 disk_io = 'none'
 pseudo_dir = '/home/camp/zhonxu/pseudo'
/
&SYSTEM
 ibrav = 0
 nat = 31
 ntyp = 3
 nbnd = 309
 starting_magnetization(1) = 0
 starting_magnetization(2) = 0
 starting_magnetization(3) = 0
 ecutwfc = 40
 ecutrho = 500
 occupations = 'smearing'
 degauss = 0.01
 smearing = 'mp'
 nspin = 1
 lda_plus_u = .True.
 Hubbard_U(1) = 0
 Hubbard_U(2) = 5.5
 Hubbard_U(3) = 0
 Hubbard_alpha(1) = 0
 Hubbard_alpha(2) = 0
 Hubbard_alpha(3) = 0
 U_projection_type = 'atomic'
/
&ELECTRONS
/
&IONS
/
&CELL
/
K_POINTS {automatic}
 4 4 1 0 0 0
ATOMIC_SPECIES
 O0 15.9994 o_pbe_v1.01.uspp.F.UPF
 Ti1 47.88 ti_pbe_v1.uspp.F.UPF
 H2 1.00794 h_pbe_v1.uspp.F.UPF
ATOMIC_POSITIONS {crystal}
 O0 0.00000 0.00000 0.37801 0 0 1
 O0 0.00000 0.50000 0.39787 0 0 1
 Ti1 0.25000 0.50000 0.45008 0 0 1
 Ti1 0.00000 0.00000 0.45276 0 0 1
 O0 0.25000 0.81000 0.44929 0 0 1
 O0 0.25000 0.19000 0.45015 0 0 1
 O0 0.00000 0.50000 0.49763 0 0 1
 O0 0.00000 0.00000 0.52549 0 0 1
 Ti1 0.25000 0.00000 0.58106 0 0 1
 Ti1 0.00000 0.50000 0.56847 0 0 1
 O0 0.25000 0.69000 0.58044 0 0 1
 O0 0.25000 0.31000 0.58046 0 0 1
 O0 0.00000 0.00000 0.62230 0 0 1
 O0 0.50000 0.00000 0.37785 0 0 1
 O0 0.50000 0.50000 0.39713 0 0 1
 Ti1 0.75000 0.50000 0.45008 0 0 1
 Ti1 0.50000 0.00000 0.45159 0 0 1
 O0 0.75000 0.81000 0.44934 0 0 1
 O0 0.75000 0.19000 0.45002 0 0 1
 O0 0.50000 0.50000 0.49175 0 0 1
 O0 0.50000 0.00000 0.52529 0 0 1
 Ti1 0.75000 0.00000 0.58105 0 0 1
 Ti1 0.50000 0.50000 0.59824 0 0 1
 O0 0.75000 0.69000 0.58055 0 0 1
 O0 0.75000 0.31000 0.58035 0 0 1
 O0 0.50000 0.00000 0.62151 0 0 1
 H2 -0.00074 0.61977 0.37545 1 1 1
 H2 0.49942 0.61576 0.37356 1 1 1
 H2 0.14866 0.03407 0.36354 1 1 1
 H2 0.64893 0.03283 0.36336 1 1 1
 O0 0.49999 0.49986 0.66137 1 1 1
CELL_PARAMETERS {angstrom}
 5.94 0.0 0.0
 0.0 6.57609306503 0.0
 0.0 0.0 26.576093065
