&CONTROL
 calculation = 'relax'
 disk_io = 'none'
 pseudo_dir = '/home/camp/zhonxu/pseudo'
/
&SYSTEM
 ibrav = 0
 nat = 32
 ntyp = 3
 nbnd = 358
 starting_magnetization(1) = 0
 starting_magnetization(2) = 0
 starting_magnetization(3) = 0
 ecutwfc = 40
 ecutrho = 500
 occupations = 'smearing'
 degauss = 0.01
 smearing = 'mp'
 nspin = 2
 Hubbard_U(1) = 0
 Hubbard_U(2) = 0
 Hubbard_U(3) = 0
 Hubbard_alpha(1) = 0
 Hubbard_alpha(2) = 0
 Hubbard_alpha(3) = 0
/
&ELECTRONS
 mixing_beta = 0.3
/
&IONS
/
&CELL
/
K_POINTS {automatic}
 4 4 1 0 0 0
ATOMIC_SPECIES
 O0 15.9994 o_pbe_v1.01.uspp.F.UPF
 Ir1 192.22 ir_pbe_v1.uspp.F.UPF
 H2 1.00794 h_pbe_v1.uspp.F.UPF
ATOMIC_POSITIONS {crystal}
 O0 0.00000 0.00000 0.37873 0 0 1
 O0 0.00000 0.50000 0.40196 0 0 1
 Ir1 0.25000 0.50000 0.45211 0 0 1
 Ir1 0.00000 0.00000 0.45362 0 0 1
 O0 0.25000 0.81000 0.45305 0 0 1
 O0 0.25000 0.19000 0.45271 0 0 1
 O0 0.00000 0.50000 0.49817 0 0 1
 O0 0.00000 0.00000 0.52949 0 0 1
 Ir1 0.25000 0.00000 0.57666 0 0 1
 Ir1 0.00000 0.50000 0.57200 0 0 1
 O0 0.25000 0.69000 0.57600 0 0 1
 O0 0.25000 0.31000 0.57604 0 0 1
 O0 0.00000 0.00000 0.62140 0 0 1
 O0 0.50000 0.00000 0.37856 0 0 1
 O0 0.50000 0.50000 0.40123 0 0 1
 Ir1 0.75000 0.50000 0.45212 0 0 1
 Ir1 0.50000 0.00000 0.45349 0 0 1
 O0 0.75000 0.81000 0.45306 0 0 1
 O0 0.75000 0.19000 0.45272 0 0 1
 O0 0.50000 0.50000 0.49856 0 0 1
 O0 0.50000 0.00000 0.52950 0 0 1
 Ir1 0.75000 0.00000 0.57675 0 0 1
 Ir1 0.50000 0.50000 0.57478 0 0 1
 O0 0.75000 0.69000 0.57554 0 0 1
 O0 0.75000 0.31000 0.57560 0 0 1
 O0 0.50000 0.00000 0.62089 0 0 1
 H2 -0.00004 0.63516 0.38361 1 1 1
 H2 0.49995 0.63666 0.38359 1 1 1
 H2 0.14362 0.03351 0.36710 1 1 1
 H2 0.64364 0.03375 0.36707 1 1 1
 O0 0.51599 0.50002 0.64731 1 1 1
 H2 0.37116 0.50016 0.66084 1 1 1
CELL_PARAMETERS {angstrom}
 6.36 0.0 0.0
 0.0 6.42052957317 0.0
 0.0 0.0 26.4205295732
