&CONTROL
 calculation = 'relax'
 disk_io = 'none'
 pseudo_dir = '/home/camp/zhonxu/pseudo'
/
&SYSTEM
 ibrav = 0
 nat = 30
 ntyp = 3
 nbnd = 324
 starting_magnetization(1) = 0
 starting_magnetization(2) = 0.6
 starting_magnetization(3) = 0
 ecutwfc = 40
 ecutrho = 500
 occupations = 'smearing'
 degauss = 0.01
 smearing = 'mp'
 nspin = 2
 Hubbard_U(1) = 0
 Hubbard_U(2) = 0
 Hubbard_U(3) = 0
 Hubbard_alpha(1) = 0
 Hubbard_alpha(2) = 0
 Hubbard_alpha(3) = 0
/
&ELECTRONS
 mixing_beta = 0.3
/
&IONS
/
&CELL
/
K_POINTS {automatic}
 4 4 1 0 0 0
ATOMIC_SPECIES
 O0 15.9994 o_pbe_v1.01.uspp.F.UPF
 Cr1 51.996 cr_pbe_v1.uspp.F.UPF
 H2 1.00794 h_pbe_v1.uspp.F.UPF
ATOMIC_POSITIONS {crystal}
 O0 0.00000 0.00000 0.38034 0 0 1
 O0 0.00000 0.50000 0.39889 0 0 1
 Cr1 0.25000 0.50000 0.44951 0 0 1
 Cr1 0.00000 0.00000 0.45190 0 0 1
 O0 0.25000 0.80000 0.45094 0 0 1
 O0 0.25000 0.20000 0.45115 0 0 1
 O0 0.00000 0.50000 0.49747 0 0 1
 O0 0.00000 0.00000 0.52478 0 0 1
 Cr1 0.25000 0.00000 0.57742 0 0 1
 Cr1 0.00000 0.50000 0.56533 0 0 1
 O0 0.25000 0.70000 0.57531 0 0 1
 O0 0.25000 0.30000 0.57528 0 0 1
 O0 0.00000 0.00000 0.61803 0 0 1
 O0 0.50000 0.00000 0.38034 0 0 1
 O0 0.50000 0.50000 0.39889 0 0 1
 Cr1 0.75000 0.50000 0.44951 0 0 1
 Cr1 0.50000 0.00000 0.45190 0 0 1
 O0 0.75000 0.80000 0.45094 0 0 1
 O0 0.75000 0.20000 0.45115 0 0 1
 O0 0.50000 0.50000 0.49747 0 0 1
 O0 0.50000 0.00000 0.52478 0 0 1
 Cr1 0.75000 0.00000 0.57742 0 0 1
 Cr1 0.50000 0.50000 0.56533 0 0 1
 O0 0.75000 0.70000 0.57531 0 0 1
 O0 0.75000 0.30000 0.57528 0 0 1
 O0 0.50000 0.00000 0.61803 0 0 1
 H2 -0.00092 0.64143 0.38097 1 1 1
 H2 0.49908 0.64143 0.38097 1 1 1
 H2 0.15794 0.02917 0.36770 1 1 1
 H2 0.65794 0.02917 0.36770 1 1 1
CELL_PARAMETERS {angstrom}
 5.8 0.0 0.0
 0.0 6.19425540319 0.0
 0.0 0.0 26.1942554032
