&CONTROL
 calculation = 'relax'
 tstress = .True.
 tprnfor = .True.
 disk_io = 'none'
 pseudo_dir = '/home/camp/zhonxu/pseudo'
/
&SYSTEM
 ibrav = 0
 nat = 49
 ntyp = 2
 nbnd = 657
 starting_magnetization(1) = 0
 starting_magnetization(2) = 0
 ecutwfc = 40
 ecutrho = 500
 occupations = 'smearing'
 degauss = 0.01
 smearing = 'mp'
 nspin = 1
 Hubbard_U(1) = 0
 Hubbard_U(2) = 0
 Hubbard_alpha(1) = 0
 Hubbard_alpha(2) = 0
/
&ELECTRONS
 mixing_beta = 0.3
/
&IONS
/
&CELL
/
K_POINTS {automatic}
 4 4 1 0 0 0
ATOMIC_SPECIES
 O0 15.9994 o_pbe_v1.01.uspp.F.UPF
 Ru1 101.07 ru_pbe_v1.uspp.F.UPF
ATOMIC_POSITIONS {crystal}
 O0 0.00000 0.50000 0.33293 0 0 0
 Ru1 0.25000 0.50000 0.36670 0 0 0
 Ru1 0.00000 0.00000 0.36670 0 0 0
 O0 0.25000 0.81000 0.36670 0 0 0
 O0 0.25000 0.19000 0.36670 0 0 0
 O0 0.00000 0.50000 0.40047 0 0 0
 O0 0.00000 0.00000 0.42180 0 0 0
 Ru1 0.25000 0.00000 0.45557 0 0 0
 Ru1 0.00000 0.50000 0.45557 0 0 0
 O0 0.25000 0.69000 0.45557 0 0 0
 O0 0.25000 0.31000 0.45557 0 0 0
 O0 0.00000 0.00000 0.48934 0 0 0
 O0 0.00000 0.50000 0.50950 1 1 1
 Ru1 0.25440 0.50000 0.54394 1 1 1
 Ru1 0.00000 0.00000 0.54392 1 1 1
 O0 0.25098 0.80602 0.54395 1 1 1
 O0 0.25098 0.19398 0.54395 1 1 1
 O0 0.00000 0.50000 0.57651 1 1 1
 O0 0.00000 0.00000 0.59786 1 1 1
 Ru1 0.24520 0.00000 0.63463 1 1 1
 Ru1 0.00000 0.50000 0.62817 1 1 1
 O0 0.24602 0.69046 0.63310 1 1 1
 O0 0.24602 0.30954 0.63310 1 1 1
 O0 0.00000 0.00000 0.66745 1 1 1
 O0 0.50000 0.50000 0.33293 0 0 0
 Ru1 0.75000 0.50000 0.36670 0 0 0
 Ru1 0.50000 0.00000 0.36670 0 0 0
 O0 0.75000 0.81000 0.36670 0 0 0
 O0 0.75000 0.19000 0.36670 0 0 0
 O0 0.50000 0.50000 0.40047 0 0 0
 O0 0.50000 0.00000 0.42180 0 0 0
 Ru1 0.75000 0.00000 0.45557 0 0 0
 Ru1 0.50000 0.50000 0.45557 0 0 0
 O0 0.75000 0.69000 0.45557 0 0 0
 O0 0.75000 0.31000 0.45557 0 0 0
 O0 0.50000 0.00000 0.48934 0 0 0
 O0 0.50000 0.50000 0.50946 1 1 1
 Ru1 0.74560 0.50000 0.54394 1 1 1
 Ru1 0.50000 0.00000 0.54448 1 1 1
 O0 0.74902 0.80602 0.54395 1 1 1
 O0 0.74902 0.19398 0.54395 1 1 1
 O0 0.50000 0.50000 0.58013 1 1 1
 O0 0.50000 0.00000 0.59825 1 1 1
 Ru1 0.75480 0.00000 0.63463 1 1 1
 Ru1 0.50000 0.50000 0.63845 1 1 1
 O0 0.75398 0.69046 0.63310 1 1 1
 O0 0.75398 0.30954 0.63310 1 1 1
 O0 0.50000 0.00000 0.66271 1 1 1
 O0 0.50000 0.50000 0.68580 1 1 1
CELL_PARAMETERS {angstrom}
 6.24 0.0 0.0
 0.0 6.40638743755 0.0
 0.0 0.0 36.0440083826
