&CONTROL
 calculation = 'relax'
 tstress = .True.
 tprnfor = .True.
 disk_io = 'none'
 pseudo_dir = '/home/camp/zhonxu/pseudo'
/
&SYSTEM
 ibrav = 0
 nat = 50
 ntyp = 3
 nbnd = 610
 starting_magnetization(1) = 0
 starting_magnetization(2) = 0
 starting_magnetization(3) = 0
 ecutwfc = 40
 ecutrho = 500
 occupations = 'smearing'
 degauss = 0.01
 smearing = 'mp'
 nspin = 1
 Hubbard_U(1) = 0
 Hubbard_U(2) = 0
 Hubbard_U(3) = 0
 Hubbard_alpha(1) = 0
 Hubbard_alpha(2) = 0
 Hubbard_alpha(3) = 0
/
&ELECTRONS
 mixing_beta = 0.3
/
&IONS
/
&CELL
/
K_POINTS {automatic}
 4 4 1 0 0 0
ATOMIC_SPECIES
 O0 15.9994 o_pbe_v1.01.uspp.F.UPF
 Nb1 92.9064 nb_pbe_v1.uspp.F.UPF
 H2 1.00794 h_pbe_v1.uspp.F.UPF
ATOMIC_POSITIONS {crystal}
 O0 0.00000 0.50000 0.32074 0 0 0
 Nb1 0.25000 0.50000 0.35995 0 0 0
 Nb1 0.00000 0.00000 0.35995 0 0 0
 O0 0.25000 0.79000 0.35995 0 0 0
 O0 0.25000 0.21000 0.35995 0 0 0
 O0 0.00000 0.50000 0.39917 0 0 0
 O0 0.00000 0.00000 0.41410 0 0 0
 Nb1 0.25000 0.00000 0.45332 0 0 0
 Nb1 0.00000 0.50000 0.45332 0 0 0
 O0 0.25000 0.71000 0.45332 0 0 0
 O0 0.25000 0.29000 0.45332 0 0 0
 O0 0.00000 0.00000 0.49253 0 0 0
 O0 -0.00076 0.50000 0.50753 1 1 1
 Nb1 0.27617 0.50000 0.54609 1 1 1
 Nb1 -0.00051 0.00000 0.54650 1 1 1
 O0 0.24487 0.79094 0.54724 1 1 1
 O0 0.24487 0.20906 0.54724 1 1 1
 O0 0.00137 0.50000 0.58354 1 1 1
 O0 -0.00073 0.00000 0.60270 1 1 1
 Nb1 0.23096 0.00000 0.64171 1 1 1
 Nb1 0.00278 0.50000 0.63308 1 1 1
 O0 0.25237 0.70431 0.64168 1 1 1
 O0 0.25237 0.29569 0.64168 1 1 1
 O0 -0.00837 0.00000 0.67429 1 1 1
 O0 0.50000 0.50000 0.32074 0 0 0
 Nb1 0.75000 0.50000 0.35995 0 0 0
 Nb1 0.50000 0.00000 0.35995 0 0 0
 O0 0.75000 0.79000 0.35995 0 0 0
 O0 0.75000 0.21000 0.35995 0 0 0
 O0 0.50000 0.50000 0.39917 0 0 0
 O0 0.50000 0.00000 0.41410 0 0 0
 Nb1 0.75000 0.00000 0.45332 0 0 0
 Nb1 0.50000 0.50000 0.45332 0 0 0
 O0 0.75000 0.71000 0.45332 0 0 0
 O0 0.75000 0.29000 0.45332 0 0 0
 O0 0.50000 0.00000 0.49253 0 0 0
 O0 0.50248 0.50000 0.50535 1 1 1
 Nb1 0.72600 0.50000 0.54630 1 1 1
 Nb1 0.49937 0.00000 0.54701 1 1 1
 O0 0.75436 0.79097 0.54741 1 1 1
 O0 0.75436 0.20903 0.54741 1 1 1
 O0 0.49639 0.50000 0.58863 1 1 1
 O0 0.49850 0.00000 0.60245 1 1 1
 Nb1 0.73180 0.00000 0.64258 1 1 1
 Nb1 0.50880 0.50000 0.64352 1 1 1
 O0 0.76924 0.70768 0.64102 1 1 1
 O0 0.76924 0.29232 0.64102 1 1 1
 O0 0.48866 0.00000 0.67426 1 1 1
 O0 0.50839 0.50000 0.69465 1 1 1
 H2 0.42232 0.50000 0.71684 1 1 1
CELL_PARAMETERS {angstrom}
 5.92 0.0 0.0
 0.0 6.98621499812 0.0
 0.0 0.0 37.4135327964
