&CONTROL
 disk_io = 'none'
 pseudo_dir = '/home/camp/zhonxu/pseudo'
/
&SYSTEM
 ibrav = 0
 nat = 2
 ntyp = 1
 nbnd = 18
 starting_magnetization(1) = 0.5
 ecutwfc = 40
 ecutrho = 500
 occupations = 'smearing'
 degauss = 0.01
 smearing = 'gauss'
 nspin = 2
 Hubbard_U(1) = 0
 Hubbard_alpha(1) = 0
/
&ELECTRONS
/
&IONS
/
&CELL
/
K_POINTS {automatic}
 1 1 1 0 0 0
ATOMIC_SPECIES
 O0 15.9994 o_pbe_v1.01.uspp.F.UPF
ATOMIC_POSITIONS {crystal}
 O0 0.00000 0.00000 0.00000
 O0 0.12778 0.00000 0.00000
CELL_PARAMETERS {angstrom}
 0.0 0.0 9.0
 0.0 10.0 0.0
 11.0 0.0 0.0
