&CONTROL
 calculation = 'relax'
 disk_io = 'none'
 pseudo_dir = '/home/camp/zhonxu/pseudo'
/
&SYSTEM
 ibrav = 0
 nat = 30
 ntyp = 3
 nbnd = 360
 starting_magnetization(1) = 0
 starting_magnetization(2) = 0
 starting_magnetization(3) = 0
 ecutwfc = 40
 ecutrho = 500
 occupations = 'smearing'
 degauss = 0.01
 smearing = 'mp'
 nspin = 1
 Hubbard_U(1) = 0
 Hubbard_U(2) = 0
 Hubbard_U(3) = 0
 Hubbard_alpha(1) = 0
 Hubbard_alpha(2) = 0
 Hubbard_alpha(3) = 0
/
&ELECTRONS
 mixing_beta = 0.3
/
&IONS
/
&CELL
/
K_POINTS {automatic}
 4 4 1 0 0 0
ATOMIC_SPECIES
 O0 15.9994 o_pbe_v1.01.uspp.F.UPF
 Pt1 195.08 pt_pbe_v1.uspp.F.UPF
 H2 1.00794 h_pbe_v1.uspp.F.UPF
ATOMIC_POSITIONS {crystal}
 O0 0.00000 0.00000 0.37725 0 0 1
 O0 0.00000 0.50000 0.39896 0 0 1
 Pt1 0.25000 0.50000 0.44865 0 0 1
 Pt1 0.00000 0.00000 0.45216 0 0 1
 O0 0.25000 0.81000 0.44354 0 0 1
 O0 0.25000 0.19000 0.45711 0 0 1
 O0 0.00000 0.50000 0.49513 0 0 1
 O0 0.00000 0.00000 0.52959 0 0 1
 Pt1 0.25000 0.00000 0.57668 0 0 1
 Pt1 0.00000 0.50000 0.57426 0 0 1
 O0 0.25000 0.69000 0.58256 0 0 1
 O0 0.25000 0.31000 0.58305 0 0 1
 O0 0.00000 0.00000 0.62260 0 0 1
 O0 0.50000 0.00000 0.37725 0 0 1
 O0 0.50000 0.50000 0.39896 0 0 1
 Pt1 0.75000 0.50000 0.44865 0 0 1
 Pt1 0.50000 0.00000 0.45216 0 0 1
 O0 0.75000 0.81000 0.44354 0 0 1
 O0 0.75000 0.19000 0.45711 0 0 1
 O0 0.50000 0.50000 0.49513 0 0 1
 O0 0.50000 0.00000 0.52959 0 0 1
 Pt1 0.75000 0.00000 0.57668 0 0 1
 Pt1 0.50000 0.50000 0.57426 0 0 1
 O0 0.75000 0.69000 0.58256 0 0 1
 O0 0.75000 0.31000 0.58305 0 0 1
 O0 0.50000 0.00000 0.62260 0 0 1
 H2 -0.00021 0.63933 0.38306 1 1 1
 H2 0.49979 0.63934 0.38306 1 1 1
 H2 0.14576 0.02890 0.36834 1 1 1
 H2 0.64576 0.02890 0.36834 1 1 1
CELL_PARAMETERS {angstrom}
 6.46 0.0 0.0
 0.0 6.49124025129 0.0
 0.0 0.0 26.4912402513
