&CONTROL
 calculation = 'relax'
 disk_io = 'none'
 pseudo_dir = '/home/camp/zhonxu/pseudo'
/
&SYSTEM
 ibrav = 0
 nat = 50
 ntyp = 3
 nbnd = 610
 tot_magnetization = 31
 starting_magnetization(1) = 0
 starting_magnetization(2) = 0.6
 starting_magnetization(3) = 0
 ecutwfc = 40
 ecutrho = 500
 occupations = 'smearing'
 degauss = 0.01
 smearing = 'mp'
 nspin = 2
 Hubbard_U(1) = 0
 Hubbard_U(2) = 0
 Hubbard_U(3) = 0
 Hubbard_alpha(1) = 0
 Hubbard_alpha(2) = 0
 Hubbard_alpha(3) = 0
/
&ELECTRONS
 mixing_beta = 0.3
/
&IONS
/
&CELL
/
K_POINTS {automatic}
 4 4 1 0 0 0
ATOMIC_SPECIES
 O0 15.9994 o_pbe_v1.01.uspp.F.UPF
 Cr1 51.996 cr_pbe_v1.uspp.F.UPF
 H2 1.00794 h_pbe_v1.uspp.F.UPF
ATOMIC_POSITIONS {crystal}
 O0 0.00000 0.50000 0.33549 0 0 0
 Cr1 0.25000 0.50000 0.37012 0 0 0
 Cr1 0.00000 0.00000 0.37012 0 0 0
 O0 0.25000 0.80000 0.37012 0 0 0
 O0 0.25000 0.20000 0.37012 0 0 0
 O0 0.00000 0.50000 0.40475 0 0 0
 O0 0.00000 0.00000 0.42207 0 0 0
 Cr1 0.25000 0.00000 0.45671 0 0 0
 Cr1 0.00000 0.50000 0.45671 0 0 0
 O0 0.25000 0.70000 0.45671 0 0 0
 O0 0.25000 0.30000 0.45671 0 0 0
 O0 0.00000 0.00000 0.49134 0 0 0
 O0 0.00000 0.50000 0.51015 0 0 0
 Cr1 0.25000 0.50000 0.54360 0 0 0
 Cr1 0.00000 0.00000 0.54714 0 0 0
 O0 0.25000 0.80297 0.54558 0 0 0
 O0 0.25000 0.19703 0.54558 0 0 0
 O0 0.00000 0.50000 0.57977 0 0 0
 O0 0.00000 0.00000 0.59968 0 0 0
 Cr1 0.25000 0.00000 0.63822 0 0 0
 Cr1 0.00000 0.50000 0.62921 0 0 0
 O0 0.25000 0.69040 0.63748 0 0 0
 O0 0.25000 0.30960 0.63748 0 0 0
 O0 0.00000 0.00000 0.66772 0 0 0
 O0 0.50000 0.50000 0.33549 0 0 0
 Cr1 0.75000 0.50000 0.37012 0 0 0
 Cr1 0.50000 0.00000 0.37012 0 0 0
 O0 0.75000 0.80000 0.37012 0 0 0
 O0 0.75000 0.20000 0.37012 0 0 0
 O0 0.50000 0.50000 0.40475 0 0 0
 O0 0.50000 0.00000 0.42207 0 0 0
 Cr1 0.75000 0.00000 0.45671 0 0 0
 Cr1 0.50000 0.50000 0.45671 0 0 0
 O0 0.75000 0.70000 0.45671 0 0 0
 O0 0.75000 0.30000 0.45671 0 0 0
 O0 0.50000 0.00000 0.49134 0 0 0
 O0 0.50000 0.50000 0.51015 0 0 0
 Cr1 0.75000 0.50000 0.54360 0 0 0
 Cr1 0.50000 0.00000 0.54714 0 0 0
 O0 0.75000 0.80297 0.54558 0 0 0
 O0 0.75000 0.19703 0.54558 0 0 0
 O0 0.50000 0.50000 0.57977 0 0 0
 O0 0.50000 0.00000 0.59968 0 0 0
 Cr1 0.75000 0.00000 0.63822 0 0 0
 Cr1 0.50000 0.50000 0.62921 0 0 0
 O0 0.75000 0.69040 0.63748 0 0 0
 O0 0.75000 0.30960 0.63748 0 0 0
 O0 0.50000 0.00000 0.66772 0 0 0
 O0 0.50430 0.50000 0.68280 1 1 1
 H2 0.34816 0.50000 0.69333 1 1 1
CELL_PARAMETERS {angstrom}
 5.8 0.0 0.0
 0.0 6.19425540319 0.0
 0.0 0.0 35.7690852661
