&CONTROL
 calculation = 'relax'
 disk_io = 'none'
 pseudo_dir = '/home/camp/zhonxu/pseudo'
/
&SYSTEM
 ibrav = 0
 nat = 31
 ntyp = 3
 nbnd = 357
 starting_magnetization(1) = 0
 starting_magnetization(2) = 0
 starting_magnetization(3) = 0
 ecutwfc = 40
 ecutrho = 500
 occupations = 'smearing'
 degauss = 0.01
 smearing = 'mp'
 nspin = 1
 Hubbard_U(1) = 0
 Hubbard_U(2) = 0
 Hubbard_U(3) = 0
 Hubbard_alpha(1) = 0
 Hubbard_alpha(2) = 0
 Hubbard_alpha(3) = 0
/
&ELECTRONS
 mixing_beta = 0.1
/
&IONS
/
&CELL
/
K_POINTS {automatic}
 4 4 1 0 0 0
ATOMIC_SPECIES
 O0 15.9994 o_pbe_v1.01.uspp.F.UPF
 Rh1 102.9055 rh_pbe_v1.uspp.F.UPF
 H2 1.00794 h_pbe_v1.uspp.F.UPF
ATOMIC_POSITIONS {crystal}
 O0 0.00000 0.00000 0.37868 0 0 1
 O0 0.00000 0.50000 0.40101 0 0 1
 Rh1 0.25000 0.50000 0.45196 0 0 1
 Rh1 0.00000 0.00000 0.45318 0 0 1
 O0 0.25000 0.81000 0.45262 0 0 1
 O0 0.25000 0.19000 0.45244 0 0 1
 O0 0.00000 0.50000 0.49863 0 0 1
 O0 0.00000 0.00000 0.52896 0 0 1
 Rh1 0.25000 0.00000 0.57640 0 0 1
 Rh1 0.00000 0.50000 0.57111 0 0 1
 O0 0.25000 0.69000 0.57531 0 0 1
 O0 0.25000 0.31000 0.57533 0 0 1
 O0 0.00000 0.00000 0.62153 0 0 1
 O0 0.50000 0.00000 0.37866 0 0 1
 O0 0.50000 0.50000 0.40033 0 0 1
 Rh1 0.75000 0.50000 0.45196 0 0 1
 Rh1 0.50000 0.00000 0.45314 0 0 1
 O0 0.75000 0.81000 0.45261 0 0 1
 O0 0.75000 0.19000 0.45245 0 0 1
 O0 0.50000 0.50000 0.49871 0 0 1
 O0 0.50000 0.00000 0.52876 0 0 1
 Rh1 0.75000 0.00000 0.57640 0 0 1
 Rh1 0.50000 0.50000 0.57743 0 0 1
 O0 0.75000 0.69000 0.57531 0 0 1
 O0 0.75000 0.31000 0.57533 0 0 1
 O0 0.50000 0.00000 0.62157 0 0 1
 H2 -0.00008 0.63798 0.38404 1 1 1
 H2 0.49991 0.63913 0.38395 1 1 1
 H2 0.14838 0.03272 0.36785 1 1 1
 H2 0.64840 0.03279 0.36784 1 1 1
 O0 0.50004 0.49939 0.64332 1 1 1
CELL_PARAMETERS {angstrom}
 6.22 0.0 0.0
 0.0 6.4346717088 0.0
 0.0 0.0 26.4346717088
