&CONTROL
 calculation = 'relax'
 tstress = .True.
 tprnfor = .True.
 disk_io = 'none'
 pseudo_dir = '/home/camp/zhonxu/pseudo'
/
&SYSTEM
 ibrav = 0
 nat = 49
 ntyp = 2
 nbnd = 609
 starting_magnetization(1) = 0
 starting_magnetization(2) = 0
 ecutwfc = 40
 ecutrho = 500
 occupations = 'smearing'
 degauss = 0.01
 smearing = 'mp'
 nspin = 1
 Hubbard_U(1) = 0
 Hubbard_U(2) = 0
 Hubbard_alpha(1) = 0
 Hubbard_alpha(2) = 0
/
&ELECTRONS
 mixing_beta = 0.3
/
&IONS
/
&CELL
/
K_POINTS {automatic}
 4 4 1 0 0 0
ATOMIC_SPECIES
 O0 15.9994 o_pbe_v1.01.uspp.F.UPF
 Nb1 92.9064 nb_pbe_v1.uspp.F.UPF
ATOMIC_POSITIONS {crystal}
 O0 0.00000 0.50000 0.32074 0 0 0
 Nb1 0.25000 0.50000 0.35995 0 0 0
 Nb1 0.00000 0.00000 0.35995 0 0 0
 O0 0.25000 0.79000 0.35995 0 0 0
 O0 0.25000 0.21000 0.35995 0 0 0
 O0 0.00000 0.50000 0.39917 0 0 0
 O0 0.00000 0.00000 0.41410 0 0 0
 Nb1 0.25000 0.00000 0.45332 0 0 0
 Nb1 0.00000 0.50000 0.45332 0 0 0
 O0 0.25000 0.71000 0.45332 0 0 0
 O0 0.25000 0.29000 0.45332 0 0 0
 O0 0.00000 0.00000 0.49253 0 0 0
 O0 0.00000 0.50000 0.50680 1 1 1
 Nb1 0.27772 0.50000 0.54637 1 1 1
 Nb1 0.00000 0.00000 0.54642 1 1 1
 O0 0.24407 0.79090 0.54726 1 1 1
 O0 0.24407 0.20910 0.54726 1 1 1
 O0 0.00000 0.50000 0.58344 1 1 1
 O0 0.00000 0.00000 0.60287 1 1 1
 Nb1 0.24908 0.00000 0.64200 1 1 1
 Nb1 0.00000 0.50000 0.63287 1 1 1
 O0 0.23918 0.70273 0.64169 1 1 1
 O0 0.23918 0.29727 0.64169 1 1 1
 O0 0.00000 0.00000 0.67388 1 1 1
 O0 0.50000 0.50000 0.32074 0 0 0
 Nb1 0.75000 0.50000 0.35995 0 0 0
 Nb1 0.50000 0.00000 0.35995 0 0 0
 O0 0.75000 0.79000 0.35995 0 0 0
 O0 0.75000 0.21000 0.35995 0 0 0
 O0 0.50000 0.50000 0.39917 0 0 0
 O0 0.50000 0.00000 0.41410 0 0 0
 Nb1 0.75000 0.00000 0.45332 0 0 0
 Nb1 0.50000 0.50000 0.45332 0 0 0
 O0 0.75000 0.71000 0.45332 0 0 0
 O0 0.75000 0.29000 0.45332 0 0 0
 O0 0.50000 0.00000 0.49253 0 0 0
 O0 0.50000 0.50000 0.50527 1 1 1
 Nb1 0.72228 0.50000 0.54637 1 1 1
 Nb1 0.50000 0.00000 0.54695 1 1 1
 O0 0.75593 0.79090 0.54726 1 1 1
 O0 0.75593 0.20910 0.54726 1 1 1
 O0 0.50000 0.50000 0.58722 1 1 1
 O0 0.50000 0.00000 0.60247 1 1 1
 Nb1 0.75092 0.00000 0.64200 1 1 1
 Nb1 0.50000 0.50000 0.65025 1 1 1
 O0 0.76082 0.70273 0.64169 1 1 1
 O0 0.76082 0.29727 0.64169 1 1 1
 O0 0.50000 0.00000 0.67361 1 1 1
 O0 0.50000 0.50000 0.69613 1 1 1
CELL_PARAMETERS {angstrom}
 5.92 0.0 0.0
 0.0 6.98621499812 0.0
 0.0 0.0 37.4135327964
