&CONTROL
 calculation = 'relax'
 tstress = .True.
 tprnfor = .True.
 disk_io = 'none'
 pseudo_dir = '/home/camp/zhonxu/pseudo'
/
&SYSTEM
 ibrav = 0
 nat = 51
 ntyp = 3
 nbnd = 667
 starting_magnetization(1) = 0
 starting_magnetization(2) = 0
 starting_magnetization(3) = 0
 ecutwfc = 40
 ecutrho = 500
 occupations = 'smearing'
 degauss = 0.01
 smearing = 'mp'
 nspin = 1
 Hubbard_U(1) = 0
 Hubbard_U(2) = 0
 Hubbard_U(3) = 0
 Hubbard_alpha(1) = 0
 Hubbard_alpha(2) = 0
 Hubbard_alpha(3) = 0
/
&ELECTRONS
 mixing_beta = 0.3
/
&IONS
/
&CELL
/
K_POINTS {automatic}
 4 4 1 0 0 0
ATOMIC_SPECIES
 O0 15.9994 o_pbe_v1.01.uspp.F.UPF
 Re1 186.207 re_pbe_v1.uspp.F.UPF
 H2 1.00794 h_pbe_v1.uspp.F.UPF
ATOMIC_POSITIONS {crystal}
 O0 0.00000 0.50000 0.31931 0 0 0
 Re1 0.25000 0.50000 0.36029 0 0 0
 Re1 0.00000 0.00000 0.36029 0 0 0
 O0 0.25000 0.78000 0.36029 0 0 0
 O0 0.25000 0.22000 0.36029 0 0 0
 O0 0.00000 0.50000 0.40127 0 0 0
 O0 0.00000 0.00000 0.41245 0 0 0
 Re1 0.25000 0.00000 0.45343 0 0 0
 Re1 0.00000 0.50000 0.45343 0 0 0
 O0 0.25000 0.72000 0.45343 0 0 0
 O0 0.25000 0.28000 0.45343 0 0 0
 O0 0.00000 0.00000 0.49441 0 0 0
 O0 0.00000 0.50000 0.50537 0 0 0
 Re1 0.24538 0.50000 0.54590 0 0 0
 Re1 0.00000 0.00000 0.54795 0 0 0
 O0 0.24888 0.78115 0.54681 0 0 0
 O0 0.24888 0.21885 0.54681 0 0 0
 O0 0.00000 0.50000 0.58718 0 0 0
 O0 0.00000 0.00000 0.60153 0 0 0
 Re1 0.27490 0.00000 0.64161 0 0 0
 Re1 0.00000 0.50000 0.63775 0 0 0
 O0 0.25375 0.71690 0.64097 0 0 0
 O0 0.25375 0.28310 0.64097 0 0 0
 O0 0.00000 0.00000 0.67501 0 0 0
 O0 0.50000 0.50000 0.31931 0 0 0
 Re1 0.75000 0.50000 0.36029 0 0 0
 Re1 0.50000 0.00000 0.36029 0 0 0
 O0 0.75000 0.78000 0.36029 0 0 0
 O0 0.75000 0.22000 0.36029 0 0 0
 O0 0.50000 0.50000 0.40127 0 0 0
 O0 0.50000 0.00000 0.41245 0 0 0
 Re1 0.75000 0.00000 0.45343 0 0 0
 Re1 0.50000 0.50000 0.45343 0 0 0
 O0 0.75000 0.72000 0.45343 0 0 0
 O0 0.75000 0.28000 0.45343 0 0 0
 O0 0.50000 0.00000 0.49441 0 0 0
 O0 0.50000 0.50000 0.50610 0 0 0
 Re1 0.75462 0.50000 0.54590 0 0 0
 Re1 0.50000 0.00000 0.54682 0 0 0
 O0 0.75112 0.78115 0.54681 0 0 0
 O0 0.75112 0.21885 0.54681 0 0 0
 O0 0.50000 0.50000 0.58597 0 0 0
 O0 0.50000 0.00000 0.59855 0 0 0
 Re1 0.72510 0.00000 0.64161 0 0 0
 Re1 0.50000 0.50000 0.63616 0 0 0
 O0 0.74625 0.71690 0.64097 0 0 0
 O0 0.74625 0.28310 0.64097 0 0 0
 O0 0.50000 0.00000 0.68239 0 0 0
 O0 0.50000 0.50000 0.68845 1 0 1
 O0 0.50000 0.33358 0.70916 1 0 1
 H2 0.50000 0.37588 0.73411 1 0 1
CELL_PARAMETERS {angstrom}
 5.36 0.0 0.0
 0.0 7.00035713375 0.0
 0.0 0.0 37.5806928395
