&CONTROL
 calculation = 'relax'
 tstress = .True.
 tprnfor = .True.
 disk_io = 'none'
 pseudo_dir = '/home/camp/zhonxu/pseudo'
/
&SYSTEM
 ibrav = 0
 nat = 51
 ntyp = 3
 nbnd = 667
 starting_magnetization(1) = 0
 starting_magnetization(2) = 0
 starting_magnetization(3) = 0
 ecutwfc = 40
 ecutrho = 500
 occupations = 'smearing'
 degauss = 0.01
 smearing = 'mp'
 nspin = 1
 Hubbard_U(1) = 0
 Hubbard_U(2) = 0
 Hubbard_U(3) = 0
 Hubbard_alpha(1) = 0
 Hubbard_alpha(2) = 0
 Hubbard_alpha(3) = 0
/
&ELECTRONS
 mixing_beta = 0.3
/
&IONS
/
&CELL
/
K_POINTS {automatic}
 4 4 1 0 0 0
ATOMIC_SPECIES
 O0 15.9994 o_pbe_v1.01.uspp.F.UPF
 Ir1 192.22 ir_pbe_v1.uspp.F.UPF
 H2 1.00794 h_pbe_v1.uspp.F.UPF
ATOMIC_POSITIONS {crystal}
 O0 0.00000 0.50000 0.33268 0 0 0
 Ir1 0.25000 0.50000 0.36650 0 0 0
 Ir1 0.00000 0.00000 0.36650 0 0 0
 O0 0.25000 0.81000 0.36650 0 0 0
 O0 0.25000 0.19000 0.36650 0 0 0
 O0 0.00000 0.50000 0.40032 0 0 0
 O0 0.00000 0.00000 0.42168 0 0 0
 Ir1 0.25000 0.00000 0.45550 0 0 0
 Ir1 0.00000 0.50000 0.45550 0 0 0
 O0 0.25000 0.69000 0.45550 0 0 0
 O0 0.25000 0.31000 0.45550 0 0 0
 O0 0.00000 0.00000 0.48932 0 0 0
 O0 0.00000 0.50000 0.51011 0 0 0
 Ir1 0.25000 0.50000 0.54421 0 0 0
 Ir1 0.00000 0.00000 0.54486 0 0 0
 O0 0.25000 0.80849 0.54474 0 0 0
 O0 0.25000 0.19151 0.54474 0 0 0
 O0 0.00000 0.50000 0.57799 0 0 0
 O0 0.00000 0.00000 0.59982 0 0 0
 Ir1 0.25000 0.00000 0.63469 0 0 0
 Ir1 0.00000 0.50000 0.63192 0 0 0
 O0 0.25000 0.69032 0.63556 0 0 0
 O0 0.25000 0.30968 0.63556 0 0 0
 O0 0.00000 0.00000 0.66742 0 0 0
 O0 0.50000 0.50000 0.33268 0 0 0
 Ir1 0.75000 0.50000 0.36650 0 0 0
 Ir1 0.50000 0.00000 0.36650 0 0 0
 O0 0.75000 0.81000 0.36650 0 0 0
 O0 0.75000 0.19000 0.36650 0 0 0
 O0 0.50000 0.50000 0.40032 0 0 0
 O0 0.50000 0.00000 0.42168 0 0 0
 Ir1 0.75000 0.00000 0.45550 0 0 0
 Ir1 0.50000 0.50000 0.45550 0 0 0
 O0 0.75000 0.69000 0.45550 0 0 0
 O0 0.75000 0.31000 0.45550 0 0 0
 O0 0.50000 0.00000 0.48932 0 0 0
 O0 0.50000 0.50000 0.51011 0 0 0
 Ir1 0.75000 0.50000 0.54421 0 0 0
 Ir1 0.50000 0.00000 0.54486 0 0 0
 O0 0.75000 0.80849 0.54474 0 0 0
 O0 0.75000 0.19151 0.54474 0 0 0
 O0 0.50000 0.50000 0.57799 0 0 0
 O0 0.50000 0.00000 0.59982 0 0 0
 Ir1 0.75000 0.00000 0.63469 0 0 0
 Ir1 0.50000 0.50000 0.63192 0 0 0
 O0 0.75000 0.69032 0.63556 0 0 0
 O0 0.75000 0.30968 0.63556 0 0 0
 O0 0.50000 0.00000 0.66742 0 0 0
 O0 0.50000 0.50000 0.68646 1 0 1
 O0 0.50000 0.31855 0.70705 1 0 1
 H2 0.50000 0.36467 0.73308 1 0 1
CELL_PARAMETERS {angstrom}
 6.36 0.0 0.0
 0.0 6.42052957317 0.0
 0.0 0.0 36.0705955976
