&CONTROL
 calculation = 'relax'
 tstress = .True.
 tprnfor = .True.
 disk_io = 'none'
 pseudo_dir = '/home/camp/zhonxu/pseudo'
/
&SYSTEM
 ibrav = 0
 nat = 31
 ntyp = 3
 nbnd = 345
 tot_magnetization = 22
 starting_magnetization(1) = 0
 starting_magnetization(2) = 0.6
 starting_magnetization(3) = 0
 ecutwfc = 40
 ecutrho = 500
 occupations = 'smearing'
 degauss = 0.01
 smearing = 'mp'
 nspin = 2
 lda_plus_u = .True.
 Hubbard_U(1) = 0
 Hubbard_U(2) = 5.5
 Hubbard_U(3) = 0
 Hubbard_alpha(1) = 0
 Hubbard_alpha(2) = 0
 Hubbard_alpha(3) = 0
 U_projection_type = 'atomic'
/
&ELECTRONS
 mixing_beta = 0.2
/
&IONS
/
&CELL
/
K_POINTS {automatic}
 4 4 1 0 0 0
ATOMIC_SPECIES
 O0 15.9994 o_pbe_v1.01.uspp.F.UPF
 Mn1 54.938 mn_pbe_v1.uspp.F.UPF
 H2 1.00794 h_pbe_v1.uspp.F.UPF
ATOMIC_POSITIONS {crystal}
 O0 0.00000 0.00000 0.37416 0 0 1
 O0 0.00000 0.50000 0.39530 0 0 1
 Mn1 0.25000 0.50000 0.44789 0 0 1
 Mn1 0.00000 0.00000 0.44733 0 0 1
 O0 0.25000 0.80000 0.44617 0 0 1
 O0 0.25000 0.20000 0.44951 0 0 1
 O0 0.00000 0.50000 0.49506 0 0 1
 O0 0.00000 0.00000 0.52544 0 0 1
 Mn1 0.25000 0.00000 0.57464 0 0 1
 Mn1 0.00000 0.50000 0.57309 0 0 1
 O0 0.25000 0.70000 0.58215 0 0 1
 O0 0.25000 0.30000 0.58251 0 0 1
 O0 0.00000 0.00000 0.62267 0 0 1
 O0 0.50000 0.00000 0.37401 0 0 1
 O0 0.50000 0.50000 0.39511 0 0 1
 Mn1 0.75000 0.50000 0.44788 0 0 1
 Mn1 0.50000 0.00000 0.44705 0 0 1
 O0 0.75000 0.80000 0.44617 0 0 1
 O0 0.75000 0.20000 0.44953 0 0 1
 O0 0.50000 0.50000 0.49738 0 0 1
 O0 0.50000 0.00000 0.52553 0 0 1
 Mn1 0.75000 0.00000 0.57464 0 0 1
 Mn1 0.50000 0.50000 0.57334 0 0 1
 O0 0.75000 0.70000 0.58217 0 0 1
 O0 0.75000 0.30000 0.58249 0 0 1
 O0 0.50000 0.00000 0.62330 0 0 1
 H2 0.00053 0.64828 0.37981 1 1 1
 H2 0.50052 0.64752 0.37942 1 1 1
 H2 0.16122 0.04298 0.36347 1 1 1
 H2 0.66126 0.04342 0.36343 1 1 1
 O0 0.49990 0.50065 0.64646 1 1 1
CELL_PARAMETERS {angstrom}
 5.68 0.0 0.0
 0.0 6.16597113195 0.0
 0.0 0.0 26.1659711319
