&CONTROL
 calculation = 'relax'
 disk_io = 'none'
 pseudo_dir = '/home/camp/zhonxu/pseudo'
/
&SYSTEM
 ibrav = 0
 nat = 48
 ntyp = 2
 nbnd = 648
 starting_magnetization(1) = 0
 starting_magnetization(2) = 0
 ecutwfc = 40
 ecutrho = 500
 occupations = 'smearing'
 degauss = 0.01
 smearing = 'mp'
 nspin = 1
 Hubbard_U(1) = 0
 Hubbard_U(2) = 0
 Hubbard_alpha(1) = 0
 Hubbard_alpha(2) = 0
/
&ELECTRONS
 mixing_beta = 0.3
/
&IONS
/
&CELL
/
K_POINTS {automatic}
 4 4 1 0 0 0
ATOMIC_SPECIES
 O0 15.9994 o_pbe_v1.01.uspp.F.UPF
 Re1 186.207 re_pbe_v1.uspp.F.UPF
ATOMIC_POSITIONS {crystal}
 O0 0.00000 0.50000 0.31931 0 0 0
 Re1 0.25000 0.50000 0.36029 0 0 0
 Re1 0.00000 0.00000 0.36029 0 0 0
 O0 0.25000 0.78000 0.36029 0 0 0
 O0 0.25000 0.22000 0.36029 0 0 0
 O0 0.00000 0.50000 0.40127 0 0 0
 O0 0.00000 0.00000 0.41245 0 0 0
 Re1 0.25000 0.00000 0.45343 0 0 0
 Re1 0.00000 0.50000 0.45343 0 0 0
 O0 0.25000 0.72000 0.45343 0 0 0
 O0 0.25000 0.28000 0.45343 0 0 0
 O0 0.00000 0.00000 0.49441 0 0 0
 O0 0.00000 0.50000 0.50559 1 1 1
 Re1 0.24733 0.50000 0.54599 1 1 1
 Re1 0.00000 0.00000 0.54813 1 1 1
 O0 0.24899 0.78111 0.54698 1 1 1
 O0 0.24899 0.21889 0.54698 1 1 1
 O0 0.00000 0.50000 0.58713 1 1 1
 O0 0.00000 0.00000 0.60187 1 1 1
 Re1 0.27500 0.00000 0.64176 1 1 1
 Re1 0.00000 0.50000 0.63778 1 1 1
 O0 0.25382 0.71695 0.64109 1 1 1
 O0 0.25382 0.28305 0.64109 1 1 1
 O0 0.00000 0.00000 0.67524 1 1 1
 O0 0.50000 0.50000 0.31931 0 0 0
 Re1 0.75000 0.50000 0.36029 0 0 0
 Re1 0.50000 0.00000 0.36029 0 0 0
 O0 0.75000 0.78000 0.36029 0 0 0
 O0 0.75000 0.22000 0.36029 0 0 0
 O0 0.50000 0.50000 0.40127 0 0 0
 O0 0.50000 0.00000 0.41245 0 0 0
 Re1 0.75000 0.00000 0.45343 0 0 0
 Re1 0.50000 0.50000 0.45343 0 0 0
 O0 0.75000 0.72000 0.45343 0 0 0
 O0 0.75000 0.28000 0.45343 0 0 0
 O0 0.50000 0.00000 0.49441 0 0 0
 O0 0.50000 0.50000 0.50595 1 1 1
 Re1 0.75267 0.50000 0.54599 1 1 1
 Re1 0.50000 0.00000 0.54691 1 1 1
 O0 0.75101 0.78111 0.54698 1 1 1
 O0 0.75101 0.21889 0.54698 1 1 1
 O0 0.50000 0.50000 0.58634 1 1 1
 O0 0.50000 0.00000 0.59866 1 1 1
 Re1 0.72500 0.00000 0.64176 1 1 1
 Re1 0.50000 0.50000 0.63644 1 1 1
 O0 0.74618 0.71695 0.64109 1 1 1
 O0 0.74618 0.28305 0.64109 1 1 1
 O0 0.50000 0.00000 0.68251 1 1 1
CELL_PARAMETERS {angstrom}
 5.36 0.0 0.0
 0.0 7.00035713375 0.0
 0.0 0.0 37.5806928395
