&CONTROL
 calculation = 'relax'
 tprnfor = .True.
 disk_io = 'none'
 pseudo_dir = '/home/camp/zhonxu/pseudo'
/
&SYSTEM
 ibrav = 0
 nat = 51
 ntyp = 3
 nbnd = 643
 tot_magnetization = 47
 starting_magnetization(1) = 0
 starting_magnetization(2) = 0.6
 starting_magnetization(3) = 0
 ecutwfc = 40
 ecutrho = 500
 occupations = 'smearing'
 degauss = 0.01
 smearing = 'mp'
 nspin = 2
 Hubbard_U(1) = 0
 Hubbard_U(2) = 0
 Hubbard_U(3) = 0
 Hubbard_alpha(1) = 0
 Hubbard_alpha(2) = 0
 Hubbard_alpha(3) = 0
/
&ELECTRONS
 mixing_beta = 0.3
/
&IONS
/
&CELL
/
K_POINTS {automatic}
 4 4 1 0 0 0
ATOMIC_SPECIES
 O0 15.9994 o_pbe_v1.01.uspp.F.UPF
 Mn1 54.938 mn_pbe_v1.uspp.F.UPF
 H2 1.00794 h_pbe_v1.uspp.F.UPF
ATOMIC_POSITIONS {crystal}
 O0 0.00000 0.50000 0.33599 0 0 0
 Mn1 0.25000 0.50000 0.37052 0 0 0
 Mn1 0.00000 0.00000 0.37052 0 0 0
 O0 0.25000 0.80000 0.37052 0 0 0
 O0 0.25000 0.20000 0.37052 0 0 0
 O0 0.00000 0.50000 0.40505 0 0 0
 O0 0.00000 0.00000 0.42231 0 0 0
 Mn1 0.25000 0.00000 0.45684 0 0 0
 Mn1 0.00000 0.50000 0.45684 0 0 0
 O0 0.25000 0.70000 0.45684 0 0 0
 O0 0.25000 0.30000 0.45684 0 0 0
 O0 0.00000 0.00000 0.49137 0 0 0
 O0 0.00000 0.49965 0.51228 1 1 1
 Mn1 0.25418 0.49918 0.54677 1 1 1
 Mn1 0.00000 -0.00154 0.54687 1 1 1
 O0 0.25086 0.80354 0.54579 1 1 1
 O0 0.25017 0.19500 0.54640 1 1 1
 O0 0.00000 0.50098 0.58189 1 1 1
 O0 0.00000 -0.00683 0.59970 1 1 1
 Mn1 0.24978 -0.00834 0.63651 1 1 1
 Mn1 0.00000 0.49044 0.63205 1 1 1
 O0 0.24053 0.68570 0.64046 1 1 1
 O0 0.24754 0.29989 0.64102 1 1 1
 O0 0.00000 -0.00585 0.66813 1 1 1
 O0 0.50000 0.50000 0.33599 0 0 0
 Mn1 0.75000 0.50000 0.37052 0 0 0
 Mn1 0.50000 0.00000 0.37052 0 0 0
 O0 0.75000 0.80000 0.37052 0 0 0
 O0 0.75000 0.20000 0.37052 0 0 0
 O0 0.50000 0.50000 0.40505 0 0 0
 O0 0.50000 0.00000 0.42231 0 0 0
 Mn1 0.75000 0.00000 0.45684 0 0 0
 Mn1 0.50000 0.50000 0.45684 0 0 0
 O0 0.75000 0.70000 0.45684 0 0 0
 O0 0.75000 0.30000 0.45684 0 0 0
 O0 0.50000 0.00000 0.49137 0 0 0
 O0 0.50000 0.49927 0.51218 1 1 1
 Mn1 0.74582 0.49918 0.54677 1 1 1
 Mn1 0.50000 -0.00077 0.54726 1 1 1
 O0 0.74914 0.80354 0.54579 1 1 1
 O0 0.74983 0.19500 0.54640 1 1 1
 O0 0.50000 0.49987 0.58288 1 1 1
 O0 0.50000 -0.00548 0.60014 1 1 1
 Mn1 0.75022 -0.00834 0.63651 1 1 1
 Mn1 0.50000 0.49416 0.64076 1 1 1
 O0 0.75947 0.68570 0.64046 1 1 1
 O0 0.75246 0.29989 0.64102 1 1 1
 O0 0.50000 -0.01364 0.66804 1 1 1
 O0 0.50000 0.52941 0.69247 1 1 1
 O0 0.50000 0.33663 0.71440 1 1 1
 H2 0.50000 0.40182 0.73976 1 1 1
CELL_PARAMETERS {angstrom}
 5.68 0.0 0.0
 0.0 6.16597113195 0.0
 0.0 0.0 35.7153451507
