&CONTROL
 calculation = 'vc-relax'
 tprnfor = .True.
 outdir = '/scratch/1093969.gilgamesh.cheme.cmu.edu'
 disk_io = 'none'
 pseudo_dir = '/home/camp/zhonxu/pseudo'
/
&SYSTEM
 ibrav = 0
 nat = 6
 ntyp = 2
 nbnd = 81
 starting_magnetization(1) = 0.6
 starting_magnetization(2) = 0
 ecutwfc = 40
 ecutrho = 500
 occupations = 'smearing'
 degauss = 0.01
 smearing = 'mp'
 nspin = 2
 Hubbard_U(1) = 0
 Hubbard_U(2) = 0
 Hubbard_alpha(1) = 0
 Hubbard_alpha(2) = 0
/
&ELECTRONS
 mixing_beta = 0.3
/
&IONS
/
&CELL
 cell_dofree = 'shape'
/
K_POINTS {automatic}
 5 5 5 0 0 0
ATOMIC_SPECIES
 Re0 186.207 re_pbe_v1.2.uspp.F.UPF
 O1 15.9994 o_pbe_v1.2.uspp.F.UPF
ATOMIC_POSITIONS {crystal}
 Re0 0.00000 0.00000 0.00000 0 0 0
 Re0 0.49855 0.49855 0.50295 0 0 0
 O1 0.29924 0.29924 0.00000 1 1 0
 O1 -0.29924 -0.29924 0.00000 1 1 0
 O1 0.79924 0.20076 0.50295 1 1 0
 O1 0.20076 0.79924 0.50295 1 1 0
CELL_PARAMETERS {angstrom}
 4.88357664661 -0.000157057819368 0.0
 -0.000157057819368 4.88357664661 0.0
 0.0 0.0 3.1195864107
