&CONTROL
 calculation = 'relax'
 tstress = .True.
 tprnfor = .True.
 disk_io = 'none'
 pseudo_dir = '/home/camp/zhonxu/pseudo'
/
&SYSTEM
 ibrav = 0
 nat = 50
 ntyp = 3
 nbnd = 658
 starting_magnetization(1) = 0
 starting_magnetization(2) = 0
 starting_magnetization(3) = 0
 ecutwfc = 40
 ecutrho = 500
 occupations = 'smearing'
 degauss = 0.01
 smearing = 'mp'
 nspin = 1
 Hubbard_U(1) = 0
 Hubbard_U(2) = 0
 Hubbard_U(3) = 0
 Hubbard_alpha(1) = 0
 Hubbard_alpha(2) = 0
 Hubbard_alpha(3) = 0
/
&ELECTRONS
 mixing_beta = 0.3
/
&IONS
/
&CELL
/
K_POINTS {automatic}
 4 4 1 0 0 0
ATOMIC_SPECIES
 O0 15.9994 o_pbe_v1.01.uspp.F.UPF
 Re1 186.207 re_pbe_v1.uspp.F.UPF
 H2 1.00794 h_pbe_v1.uspp.F.UPF
ATOMIC_POSITIONS {crystal}
 O0 0.00000 0.50000 0.31931 0 0 0
 Re1 0.25000 0.50000 0.36029 0 0 0
 Re1 0.00000 0.00000 0.36029 0 0 0
 O0 0.25000 0.78000 0.36029 0 0 0
 O0 0.25000 0.22000 0.36029 0 0 0
 O0 0.00000 0.50000 0.40127 0 0 0
 O0 0.00000 0.00000 0.41245 0 0 0
 Re1 0.25000 0.00000 0.45343 0 0 0
 Re1 0.00000 0.50000 0.45343 0 0 0
 O0 0.25000 0.72000 0.45343 0 0 0
 O0 0.25000 0.28000 0.45343 0 0 0
 O0 0.00000 0.00000 0.49441 0 0 0
 O0 0.00033 0.50000 0.50699 1 1 1
 Re1 0.26420 0.50000 0.54630 1 1 1
 Re1 -0.00107 0.00000 0.54777 1 1 1
 O0 0.25087 0.78185 0.54686 1 1 1
 O0 0.25087 0.21815 0.54686 1 1 1
 O0 0.00084 0.50000 0.58489 1 1 1
 O0 0.00047 0.00000 0.60155 1 1 1
 Re1 0.27425 0.00000 0.64096 1 1 1
 Re1 -0.00551 0.50000 0.63569 1 1 1
 O0 0.25116 0.71434 0.64002 1 1 1
 O0 0.25116 0.28566 0.64002 1 1 1
 O0 0.00018 0.00000 0.67443 1 1 1
 O0 0.50000 0.50000 0.31931 0 0 0
 Re1 0.75000 0.50000 0.36029 0 0 0
 Re1 0.50000 0.00000 0.36029 0 0 0
 O0 0.75000 0.78000 0.36029 0 0 0
 O0 0.75000 0.22000 0.36029 0 0 0
 O0 0.50000 0.50000 0.40127 0 0 0
 O0 0.50000 0.00000 0.41245 0 0 0
 Re1 0.75000 0.00000 0.45343 0 0 0
 Re1 0.50000 0.50000 0.45343 0 0 0
 O0 0.75000 0.72000 0.45343 0 0 0
 O0 0.75000 0.28000 0.45343 0 0 0
 O0 0.50000 0.00000 0.49441 0 0 0
 O0 0.50020 0.50000 0.50489 1 1 1
 Re1 0.73636 0.50000 0.54610 1 1 1
 Re1 0.50136 0.00000 0.54650 1 1 1
 O0 0.74921 0.78066 0.54681 1 1 1
 O0 0.74921 0.21934 0.54681 1 1 1
 O0 0.49971 0.50000 0.58815 1 1 1
 O0 0.49949 0.00000 0.59802 1 1 1
 Re1 0.72501 0.00000 0.64089 1 1 1
 Re1 0.50500 0.50000 0.64012 1 1 1
 O0 0.74939 0.71925 0.63927 1 1 1
 O0 0.74939 0.28075 0.63927 1 1 1
 O0 0.50009 0.00000 0.68145 1 1 1
 O0 0.52887 0.50000 0.69118 1 1 1
 H2 0.38038 0.50000 0.70645 1 1 1
CELL_PARAMETERS {angstrom}
 5.36 0.0 0.0
 0.0 7.00035713375 0.0
 0.0 0.0 37.5806928395
